32
Lattice="100.0 0 0 0 100.0 0 0 0 100.0" Properties=species:S:1:pos:R:3 pbc="T T T" Time=0
Ar -0.403080 -0.335250 0.182049
Ar 0.207164 25.370710 24.819416
Ar 24.668941 0.247308 25.302274
Ar 24.939814 25.006409 0.297938
Ar -0.330252 -0.467991 50.232244
Ar 0.215270 25.079711 75.060638
Ar 24.921399 -0.154395 74.922958
Ar 24.739196 25.463325 50.039773
Ar -0.283619 49.908872 0.069789
Ar -0.148295 74.784379 25.489508
Ar 24.529673 50.410436 24.988230
Ar 24.874022 74.935092 0.106938
Ar 0.118394 49.828488 50.175749
Ar 0.318261 75.392745 75.252940
Ar 24.584993 50.250110 75.153041
Ar 25.199138 75.233571 50.004299
Ar 50.439879 0.307283 -0.233763
Ar 50.378974 24.656823 25.210046
Ar 74.891353 0.498251 25.100395
Ar 75.094123 24.865451 -0.269414
Ar 49.863730 0.451591 49.682459
Ar 50.046703 25.072693 74.890334
Ar 74.607458 -0.305371 75.188092
Ar 74.990891 24.617626 50.216098
Ar 49.780033 50.084386 0.416451
Ar 49.589711 74.545914 25.291114
Ar 75.436022 49.509209 24.663676
Ar 74.715036 74.913864 0.084028
Ar 49.942608 49.779771 49.627896
Ar 49.667919 74.651702 74.829676
Ar 74.721625 49.700012 75.494505
Ar 75.070527 74.766096 49.708547
