10
frame
Ar 5.537767 2.004457 7.386636
Ar 9.959869 1.958844 4.455133
Ar 7.450291 2.964100 4.001501
Ar 1.549046 8.137896 3.778781
Ar 8.070170 3.409956 8.941775
Ar 4.734408 2.689964 9.884302
Ar 3.332123 5.640889 5.931616
Ar 8.691209 0.339702 1.410655
Ar 7.895909 7.071889 0.357487
Ar 8.760840 8.333598 0.200411
10
frame
Ar 8.818084 4.111100 9.158510
Ar 0.178693 9.157513 1.556838
Ar 0.837390 5.072017 6.706992
Ar 3.573468 6.490527 9.816985
Ar 5.104012 2.558727 0.118978
Ar 5.033103 0.291354 2.674115
Ar 5.322284 9.269261 7.777026
Ar 3.029902 4.187212 3.969973
Ar 0.711216 9.675740 6.139176
Ar 5.771341 5.987470 9.491346
10
frame
Ar 0.968688 7.264139 6.991436
Ar 7.231051 2.588799 0.391735
Ar 8.367044 2.951235 2.900008
Ar 9.892675 5.852213 5.366682
Ar 3.107519 5.094286 6.377135
Ar 8.566546 1.447590 1.660963
Ar 9.904396 1.784537 0.543424
Ar 7.413748 1.340469 9.193845
Ar 6.307525 0.206845 0.659415
Ar 9.658666 9.102393 7.608305
10
frame
Ar 9.704789 0.868210 4.170634
Ar 6.672344 8.074906 2.506883
Ar 4.411211 3.446814 8.169426
Ar 8.144316 7.487247 8.682917
Ar 7.856350 7.440110 8.926935
Ar 3.796456 9.739841 5.673267
Ar 8.778464 2.832097 8.747495
Ar 8.935661 8.627063 6.053802
Ar 8.764436 4.258819 9.136771
Ar 2.461426 7.716840 7.814670
10
frame
Ar 2.788938 9.612921 1.762420
Ar 6.748451 7.390562 4.154576
Ar 2.721387 6.153215 1.095878
Ar 7.466682 8.638994 7.375565
Ar 4.494803 6.566983 6.952661
Ar 1.218165 9.131436 2.356825
Ar 6.133816 6.729184 5.082557
Ar 1.203839 0.631453 3.076542
Ar 9.205416 7.084334 0.684603
Ar 7.084886 1.504578 1.274350
10
frame
Ar 6.693358 6.605428 8.678912
Ar 8.699454 2.556568 4.054973
Ar 8.019687 3.097121 6.391882
Ar 4.904036 6.186692 9.824634
Ar 0.750213 9.109288 8.515988
Ar 5.435194 4.236601 3.245380
Ar 2.616075 7.618720 4.423197
Ar 7.891612 0.569671 1.895877
Ar 2.635151 7.712540 3.178779
Ar 0.947706 9.471319 8.146938
10
frame
Ar 4.686734 8.044905 9.878266
Ar 7.411183 7.841545 8.358376
Ar 4.163586 9.939909 6.231066
Ar 7.330771 7.325715 2.262100
Ar 3.804069 5.470013 1.956694
Ar 9.849426 9.657116 4.013975
Ar 9.492643 7.730896 0.580399
Ar 2.867658 2.125692 8.990457
Ar 8.952361 9.656782 7.469017
Ar 5.531276 2.939591 7.638519
10
frame
Ar 7.018332 0.739637 9.606771
Ar 9.570605 4.008791 0.017775
Ar 9.865346 0.153167 9.293132
Ar 8.550867 3.333182 4.911962
Ar 0.062104 5.760123 8.812985
Ar 4.701334 8.521139 2.407980
Ar 5.238725 9.787159 6.966795
Ar 8.749359 4.590681 3.765825
Ar 9.275647 7.799148 3.076709
Ar 1.312086 7.983926 1.569712
10
frame
Ar 4.328676 7.827561 6.581160
Ar 6.989256 9.907227 7.531884
Ar 2.021639 9.656989 4.840752
Ar 1.070613 9.257383 6.289232
Ar 3.566349 4.518047 2.691708
Ar 9.085390 2.703855 3.199891
Ar 5.801851 4.324190 5.172586
Ar 4.491760 4.764084 2.852151
Ar 5.654919 6.915981 7.078994
Ar 5.800828 4.822783 4.158195
10
frame
Ar 5.107329 2.182255 5.147063
Ar 9.245467 5.518446 8.959638
Ar 7.811647 1.703300 1.315030
Ar 5.498704 7.418138 9.985106
Ar 8.111086 7.376617 3.694087
Ar 5.400116 9.365143 0.815112
Ar 2.118498 8.531624 3.763616
Ar 1.196050 3.946587 1.976856
Ar 3.808455 1.976691 1.450611
Ar 1.981189 8.107199 8.739258
