10
Lattice="10.0 0 0 0 10.0 0 0 0 10.0" Properties=species:S:1:pos:R:3 pbc="T T T" Time=0
Ar 0.351845 0.824542 0.050479
Ar 0.273951 0.962296 0.098931
Ar 0.494592 0.834696 0.733238
Ar 0.402962 0.058155 0.079436
Ar 0.824717 0.114522 0.791576
Ar 0.860664 0.917329 0.249939
Ar 0.471381 0.652469 0.714638
Ar 0.992123 0.988910 0.204718
Ar 0.268199 0.540137 0.933078
Ar 0.009684 0.822378 0.029820
10
Lattice="10.0 0 0 0 10.0 0 0 0 10.0" Properties=species:S:1:pos:R:3 pbc="T T T" Time=1
Ar 0.361359 0.828610 0.058798
Ar 0.278182 0.967363 0.105593
Ar 0.502220 0.840675 0.734551
Ar 0.412444 0.065977 0.081469
Ar 0.832239 0.117139 0.793376
Ar 0.864072 0.917565 0.253348
Ar 0.478512 0.661350 0.719545
Ar 0.998421 0.991227 0.205583
Ar 0.272008 0.545262 0.941663
Ar 0.018046 0.831074 0.030094
10
Lattice="10.0 0 0 0 10.0 0 0 0 10.0" Properties=species:S:1:pos:R:3 pbc="T T T" Time=2
Ar 5.016572 9.627354 9.640384
Ar 6.229991 2.981697 5.122792
Ar 3.804430 2.561557 1.272733
Ar 0.425455 0.263264 0.136487
Ar 9.801243 1.481851 0.663443
Ar 2.507327 5.724501 7.946301
Ar 6.007664 2.940939 0.912061
Ar 3.720987 3.680146 0.993546
Ar 4.384117 6.427618 5.301778
Ar 3.187104 1.128122 1.972663
10
Lattice="10.0 0 0 0 10.0 0 0 0 10.0" Properties=species:S:1:pos:R:3 pbc="T T T" Time=3
Ar 0.972887 7.676245 3.896892
Ar 7.644085 1.419062 7.231245
Ar 5.478679 8.551588 5.996875
Ar 0.442171 0.658983 0.245672
Ar 7.834828 4.081813 0.417870
Ar 5.490733 2.956762 0.848632
Ar 6.911176 7.373625 0.986207
Ar 7.095585 1.109320 4.652543
Ar 7.761060 5.942015 0.142955
Ar 5.521069 7.098443 9.581465
10
Lattice="10.0 0 0 0 10.0 0 0 0 10.0" Properties=species:S:1:pos:R:3 pbc="T T T" Time=4
Ar 6.929203 5.725135 8.153400
Ar 9.058180 9.856427 9.339699
Ar 7.152950 4.541524 0.721030
Ar 0.458943 1.054594 0.354809
Ar 5.868356 6.681885 0.172344
Ar 8.474138 0.189023 3.750963
Ar 7.814701 1.806311 1.060350
Ar 0.470169 8.538633 8.311506
Ar 1.138004 5.456412 4.984132
Ar 7.855016 3.068720 7.190290
10
Lattice="10.0 0 0 0 10.0 0 0 0 10.0" Properties=species:S:1:pos:R:3 pbc="T T T" Time=5
Ar 2.885518 3.774025 2.409907
Ar 0.472276 8.293792 1.448155
Ar 8.827221 0.531460 5.445186
Ar 0.475715 1.450205 0.463947
Ar 3.901889 9.281930 9.926821
Ar 1.457541 7.421283 6.653295
Ar 8.718225 6.239022 1.134520
Ar 3.844752 5.967947 1.970467
Ar 4.514962 4.970812 9.825292
Ar 0.188947 9.038996 4.799102
10
Lattice="10.0 0 0 0 10.0 0 0 0 10.0" Properties=species:S:1:pos:R:3 pbc="T T T" Time=6
Ar 8.841835 1.822915 6.666411
Ar 1.886358 6.731155 3.556608
Ar 0.501493 6.521395 0.169344
Ar 0.492497 1.845823 0.573090
Ar 1.935417 1.881979 9.681302
Ar 4.440944 4.653542 9.555628
Ar 9.621748 0.671733 1.208690
Ar 7.219342 3.397254 5.629423
Ar 7.891921 4.485213 4.666451
Ar 2.522878 5.009270 2.407912
10
Lattice="10.0 0 0 0 10.0 0 0 0 10.0" Properties=species:S:1:pos:R:3 pbc="T T T" Time=7
Ar 4.798150 9.871801 0.922915
Ar 3.300440 5.168519 5.665062
Ar 2.175757 2.511338 4.893506
Ar 0.509279 2.241441 0.682234
Ar 9.968946 4.482028 9.435782
Ar 7.424348 1.885800 2.457961
Ar 0.525269 5.104443 1.282861
Ar 0.593932 0.826567 9.288381
Ar 1.268881 3.999612 9.507607
Ar 4.856816 0.979538 0.016718
10
Lattice="10.0 0 0 0 10.0 0 0 0 10.0" Properties=species:S:1:pos:R:3 pbc="T T T" Time=8
Ar 0.754468 7.920684 5.179422
Ar 4.714520 3.605891 7.773521
Ar 3.850020 8.501281 9.617667
Ar 0.526059 2.637118 0.791373
Ar 8.002522 7.082079 9.190233
Ar 0.407752 9.118058 5.360295
Ar 1.428745 9.537093 1.357064
Ar 3.968487 8.255830 2.947385
Ar 4.645873 3.514064 4.348715
Ar 7.190757 6.949796 7.625519
10
Lattice="10.0 0 0 0 10.0 0 0 0 10.0" Properties=species:S:1:pos:R:3 pbc="T T T" Time=9
Ar 6.710779 5.969451 9.436022
Ar 6.128600 2.043265 9.881981
Ar 5.524283 4.491223 4.341828
Ar 0.542836 3.032798 0.900531
Ar 6.035930 9.682188 8.944658
Ar 3.391156 6.350317 8.262629
Ar 2.332223 3.969754 1.431290
Ar 7.343043 5.685078 6.606376
Ar 8.023035 3.028459 9.189821
Ar 9.524704 2.920171 5.234226
10
Lattice="10.0 0 0 0 10.0 0 0 0 10.0" Properties=species:S:1:pos:R:3 pbc="T T T" Time=10
Ar 2.667156 4.017992 3.692588
Ar 7.542681 0.480638 1.990441
Ar 7.198547 0.481165 9.065988
Ar 0.559613 3.428479 1.009689
Ar 4.069357 2.282300 8.699121
Ar 6.374495 3.582801 1.164997
Ar 3.235700 8.402414 1.505515
Ar 0.717599 3.114325 0.265367
Ar 1.400196 2.542854 4.030927
Ar 1.858632 8.890542 2.842896
10
Lattice="10.0 0 0 0 10.0 0 0 0 10.0" Properties=species:S:1:pos:R:3 pbc="T T T" Time=11
Ar 8.623533 2.066534 7.949156
Ar 8.956754 8.918011 4.098905
Ar 8.872810 6.471107 3.790147
Ar 0.576379 3.824153 1.118845
Ar 2.102784 4.882409 8.453582
Ar 9.357833 0.815286 4.067365
Ar 4.139188 2.835081 1.579744
Ar 4.092156 0.543574 3.924358
Ar 4.777364 2.057251 8.872029
Ar 4.192561 4.860912 0.451566
10
Lattice="10.0 0 0 0 10.0 0 0 0 10.0" Properties=species:S:1:pos:R:3 pbc="T T T" Time=12
Ar 4.579923 0.115090 2.205721
Ar 0.370827 7.355383 6.207370
Ar 0.547073 2.461048 8.514305
Ar 0.602901 4.200427 1.182033
Ar 0.136211 7.482518 8.208043
Ar 2.341171 8.047772 6.969733
Ar 5.042690 7.267743 1.653961
Ar 7.456956 7.992222 7.629314
Ar 8.154519 1.571634 3.713136
Ar 6.526476 0.831288 8.060249
10
Lattice="10.0 0 0 0 10.0 0 0 0 10.0" Properties=species:S:1:pos:R:3 pbc="T T T" Time=13
Ar 0.536312 8.163647 6.462286
Ar 1.784897 5.792737 8.315836
Ar 2.221336 8.450985 3.238463
Ar 0.629423 4.576701 1.245222
Ar 8.169636 0.082627 7.962502
Ar 5.324514 5.280279 9.872101
Ar 5.946192 1.700400 1.728181
Ar 0.821757 5.440871 1.334270
Ar 1.531675 1.086016 8.554242
Ar 8.860392 6.801669 5.668930
10
Lattice="10.0 0 0 0 10.0 0 0 0 10.0" Properties=species:S:1:pos:R:3 pbc="T T T" Time=14
Ar 6.492702 6.212204 0.718851
Ar 3.198960 4.230088 0.424282
Ar 3.895599 4.440922 7.962620
Ar 0.655944 4.952976 1.308412
Ar 6.203059 2.682736 7.716980
Ar 8.307867 2.512790 2.774470
Ar 6.849694 6.133056 1.802401
Ar 4.186555 2.889519 5.039226
Ar 4.908830 0.600398 3.395347
Ar 1.194308 2.772052 3.277611
10
Lattice="10.0 0 0 0 10.0 0 0 0 10.0" Properties=species:S:1:pos:R:3 pbc="T T T" Time=15
Ar 2.449096 4.260766 4.975419
Ar 4.613025 2.667438 2.532727
Ar 5.569863 0.430859 2.686777
Ar 0.686026 5.345246 1.373250
Ar 4.236482 5.282846 7.471458
Ar 1.291220 9.745301 5.676840
Ar 7.753195 0.565711 1.876621
Ar 7.547793 0.322170 8.742534
Ar 8.285987 0.114780 8.236452
Ar 3.528219 8.742431 0.886290
10
Lattice="10.0 0 0 0 10.0 0 0 0 10.0" Properties=species:S:1:pos:R:3 pbc="T T T" Time=16
Ar 8.405460 2.309335 9.231892
Ar 6.027090 1.104787 4.641175
Ar 7.244126 6.420797 7.410931
Ar 0.716106 5.737518 1.438089
Ar 2.269905 7.882955 7.225936
Ar 4.274572 6.977811 8.579209
Ar 8.656728 4.998360 1.950935
Ar 0.909030 7.754822 2.445843
Ar 1.663143 9.629160 3.077557
Ar 5.862130 4.712808 8.494969
10
Lattice="10.0 0 0 0 10.0 0 0 0 10.0" Properties=species:S:1:pos:R:3 pbc="T T T" Time=17
Ar 4.361823 0.357904 3.488365
Ar 7.441153 9.542141 6.749622
Ar 8.918385 2.410732 2.135089
Ar 0.746186 6.129790 1.502927
Ar 0.303329 0.483064 6.980415
Ar 7.257924 4.210321 1.481578
Ar 9.560267 9.431010 2.025248
Ar 4.278386 5.185193 6.143584
Ar 5.032181 9.145822 7.924227
Ar 8.196041 0.683186 6.103648
10
Lattice="10.0 0 0 0 10.0 0 0 0 10.0" Properties=species:S:1:pos:R:3 pbc="T T T" Time=18
Ar 0.318186 8.406472 7.744838
Ar 8.855216 7.979495 8.858069
Ar 0.592648 8.400669 6.859244
Ar 0.776273 6.522058 1.567760
Ar 8.336751 3.083174 6.734892
Ar 0.241277 1.442832 4.383949
Ar 0.463798 3.863656 2.099564
Ar 7.647739 2.615561 9.841326
Ar 8.401223 8.662495 2.770901
Ar 0.529951 6.653558 3.712329
10
Lattice="10.0 0 0 0 10.0 0 0 0 10.0" Properties=species:S:1:pos:R:3 pbc="T T T" Time=19
Ar 6.274549 6.455041 2.001310
Ar 0.269225 6.416766 0.966562
Ar 2.266912 4.390604 1.583399
Ar 0.806360 6.914325 1.632593
Ar 6.370180 5.683283 6.489372
Ar 3.224628 8.675346 7.286319
Ar 1.367330 8.296302 2.173879
Ar 1.017091 0.045928 3.539067
Ar 1.770263 8.179167 7.617576
Ar 2.863909 2.624015 1.320961
10
Lattice="10.0 0 0 0 10.0 0 0 0 10.0" Properties=species:S:1:pos:R:3 pbc="T T T" Time=20
Ar 2.233525 4.503561 6.249406
Ar 1.683212 4.854031 3.075073
Ar 3.938587 0.380595 6.315915
Ar 0.836449 7.306594 1.697415
Ar 4.403609 8.283393 6.243852
Ar 6.207978 5.907859 0.188689
Ar 2.270861 2.728946 2.248193
Ar 4.386444 7.476295 7.236809
Ar 5.139302 7.695840 2.464251
Ar 5.197866 8.594472 8.929603
10
Lattice="10.0 0 0 0 10.0 0 0 0 10.0" Properties=species:S:1:pos:R:3 pbc="T T T" Time=21
Ar 8.192500 2.552080 0.497501
Ar 3.098773 3.292754 5.185537
Ar 5.610255 6.370609 1.048435
Ar 0.864931 7.697330 1.760252
Ar 2.437039 0.883503 5.998332
Ar 9.191410 3.140400 3.091041
Ar 3.174425 7.161658 2.322534
Ar 7.755794 4.906669 0.934557
Ar 8.508259 7.212485 7.310945
Ar 7.531832 4.564904 6.538241
10
Lattice="10.0 0 0 0 10.0 0 0 0 10.0" Properties=species:S:1:pos:R:3 pbc="T T T" Time=22
Ar 4.151475 0.600600 4.745597
Ar 4.514333 1.731482 7.296003
Ar 7.281920 2.360635 5.780955
Ar 0.893412 8.088067 1.823090
Ar 0.470473 3.483749 5.752629
Ar 2.174843 0.372940 5.993392
Ar 4.077990 1.594366 2.396872
Ar 1.125139 2.336890 4.632477
Ar 1.877217 6.729131 2.157639
Ar 9.865803 0.535341 4.146888
10
Lattice="10.0 0 0 0 10.0 0 0 0 10.0" Properties=species:S:1:pos:R:3 pbc="T T T" Time=23
Ar 0.110451 8.649114 8.993691
Ar 5.929894 0.170212 9.406468
Ar 8.953584 8.350662 0.513474
Ar 0.921889 8.478805 1.885926
Ar 8.503906 6.083992 5.506927
Ar 5.158277 7.605479 8.895746
Ar 4.981558 6.027072 2.471212
Ar 4.494484 9.767115 8.330397
Ar 5.246175 6.245778 7.004333
Ar 2.199772 6.505777 1.755535
10
Lattice="10.0 0 0 0 10.0 0 0 0 10.0" Properties=species:S:1:pos:R:3 pbc="T T T" Time=24
Ar 6.069432 6.697627 3.241783
Ar 7.345455 8.608943 1.516936
Ar 0.625248 4.340690 5.245993
Ar 0.950336 8.869584 1.948752
Ar 6.537322 8.684268 5.261257
Ar 8.141707 4.838015 1.798104
Ar 5.885126 0.459780 2.545548
Ar 7.863850 7.197317 2.028287
Ar 8.615163 5.762385 1.851037
Ar 4.533737 2.476206 9.364179
10
Lattice="10.0 0 0 0 10.0 0 0 0 10.0" Properties=species:S:1:pos:R:3 pbc="T T T" Time=25
Ar 2.028426 4.746144 7.489856
Ar 8.761042 7.047683 3.627423
Ar 2.296894 0.330714 9.978528
Ar 0.978785 9.260368 2.011582
Ar 4.570738 1.284543 5.015586
Ar 1.125138 2.070547 4.700468
Ar 6.788696 4.892488 2.619885
Ar 1.233190 4.627518 5.726157
Ar 1.984151 5.278987 6.697736
Ar 6.867703 8.446631 6.972823
10
Lattice="10.0 0 0 0 10.0 0 0 0 10.0" Properties=species:S:1:pos:R:3 pbc="T T T" Time=26
Ar 7.987411 2.794657 1.737935
Ar 0.176604 5.486496 5.737881
Ar 3.968541 6.320737 4.711062
Ar 1.007234 9.651153 2.074412
Ar 2.604155 3.884820 4.769917
Ar 4.109053 9.304016 7.602886
Ar 7.692263 9.325198 2.694222
Ar 4.602530 2.057715 9.424056
Ar 5.352689 4.794583 1.544373
Ar 9.201669 4.417056 4.581467
10
Lattice="10.0 0 0 0 10.0 0 0 0 10.0" Properties=species:S:1:pos:R:3 pbc="T T T" Time=27
Ar 3.946157 0.846158 5.981595
Ar 1.592166 3.925310 7.848339
Ar 5.640188 2.310762 9.443595
Ar 1.035682 0.041936 2.137244
Ar 0.637571 6.485096 4.524248
Ar 7.092967 6.537483 0.505303
Ar 8.595831 3.757908 2.768560
Ar 7.971768 9.487831 3.121815
Ar 8.721568 4.307274 6.395571
Ar 1.535636 0.387480 2.190111
10
Lattice="10.0 0 0 0 10.0 0 0 0 10.0" Properties=species:S:1:pos:R:3 pbc="T T T" Time=28
Ar 9.904903 8.897659 0.225254
Ar 3.007743 2.364142 9.958816
Ar 7.311837 8.300788 4.176127
Ar 1.064131 0.432720 2.200076
Ar 8.670988 9.085370 4.278579
Ar 0.076882 3.770950 3.407719
Ar 9.499397 8.190618 2.842897
Ar 1.341005 6.917947 6.819574
Ar 2.090448 3.819965 1.246769
Ar 3.869586 6.357887 9.798736
10
Lattice="10.0 0 0 0 10.0 0 0 0 10.0" Properties=species:S:1:pos:R:3 pbc="T T T" Time=29
Ar 5.863649 6.949160 4.468913
Ar 4.423321 0.802973 2.069294
Ar 8.983485 4.290814 8.908660
Ar 3.457497 2.458022 2.512981
Ar 6.704405 1.685644 4.032910
Ar 3.060796 1.004416 6.310136
Ar 0.402964 2.623327 2.917235
Ar 4.710242 4.348064 0.517333
Ar 5.459326 3.332656 6.097966
Ar 3.838619 0.693776 7.157287
10
Lattice="10.0 0 0 0 10.0 0 0 0 10.0" Properties=species:S:1:pos:R:3 pbc="T T T" Time=30
Ar 1.822395 5.000660 8.712569
Ar 5.838903 9.241797 4.179765
Ar 0.655056 0.280797 3.641189
Ar 5.850865 4.483326 2.825888
Ar 4.737886 4.285975 3.787268
Ar 6.044710 8.237883 9.212553
Ar 1.306544 7.056022 2.991552
Ar 8.079479 1.778180 4.215092
Ar 8.828201 2.845355 0.949170
Ar 3.807653 5.029666 4.515838
10
Lattice="10.0 0 0 0 10.0 0 0 0 10.0" Properties=species:S:1:pos:R:3 pbc="T T T" Time=31
Ar 7.781141 3.052160 2.956225
Ar 7.254495 7.680604 6.290231
Ar 2.326626 6.270780 8.373718
Ar 8.244224 6.508646 3.138799
Ar 2.771368 6.886305 3.541625
Ar 9.028485 5.471405 2.114820
Ar 2.210123 1.488717 3.065869
Ar 1.448717 9.208297 7.912851
Ar 2.197076 2.358055 5.800374
Ar 3.776824 9.365499 1.874539
10
Lattice="10.0 0 0 0 10.0 0 0 0 10.0" Properties=species:S:1:pos:R:3 pbc="T T T" Time=32
Ar 3.739886 1.103661 7.199880
Ar 8.670087 6.119411 8.400697
Ar 3.998197 2.260762 3.106246
Ar 0.637676 8.533983 3.451629
Ar 0.804870 9.486529 3.295974
Ar 2.012260 2.704927 5.017087
Ar 3.113702 5.921411 3.140186
Ar 4.817954 6.638414 1.610610
Ar 5.565951 1.870755 0.651578
Ar 3.745881 3.701423 9.233331
10
Lattice="10.0 0 0 0 10.0 0 0 0 10.0" Properties=species:S:1:pos:R:3 pbc="T T T" Time=33
Ar 9.698631 9.155159 1.443536
Ar 0.085679 4.558217 0.511163
Ar 5.669768 8.250744 7.838775
Ar 3.031098 0.559359 3.764499
Ar 8.838372 2.086752 3.050323
Ar 4.996065 9.938410 7.919314
Ar 4.017280 0.354106 3.214503
Ar 8.187190 4.068532 5.308368
Ar 8.934826 1.383456 5.502783
Ar 3.714939 8.037347 6.592122
10
Lattice="10.0 0 0 0 10.0 0 0 0 10.0" Properties=species:S:1:pos:R:3 pbc="T T T" Time=34
Ar 5.657377 7.206657 5.687193
Ar 1.501270 2.997024 2.621629
Ar 7.341340 4.240726 2.571304
Ar 5.425118 2.588145 4.076811
Ar 6.871276 4.683567 2.805229
Ar 7.979869 7.171893 0.821542
Ar 4.920855 4.786800 3.288822
Ar 1.556431 1.498652 9.006124
Ar 2.303702 0.896155 0.353988
Ar 3.683997 2.373272 3.950912
10
Lattice="10.0 0 0 0 10.0 0 0 0 10.0" Properties=species:S:1:pos:R:3 pbc="T T T" Time=35
Ar 1.616122 5.258155 9.930849
Ar 2.916862 1.435830 4.732095
Ar 9.012930 0.230676 7.303834
Ar 7.819040 4.616951 4.389178
Ar 4.904180 7.280381 2.560131
Ar 0.963662 4.405411 3.723773
Ar 5.824528 9.219473 3.363087
Ar 4.925671 8.928774 2.703881
Ar 5.672579 0.408852 5.205197
Ar 3.653048 6.709194 1.309697
10
Lattice="10.0 0 0 0 10.0 0 0 0 10.0" Properties=species:S:1:pos:R:3 pbc="T T T" Time=36
Ar 7.574867 3.309653 4.174505
Ar 4.332451 9.874638 6.842561
Ar 0.273621 6.607732 2.240847
Ar 0.213004 6.645755 4.701551
Ar 3.348004 9.490090 2.110545
Ar 3.947455 1.638929 6.626004
Ar 6.728180 3.652154 3.437354
Ar 8.294882 6.358920 6.401585
Ar 9.041485 9.921526 0.056456
Ar 3.622057 1.045109 8.668482
10
Lattice="10.0 0 0 0 10.0 0 0 0 10.0" Properties=species:S:1:pos:R:3 pbc="T T T" Time=37
Ar 3.533611 1.361150 8.418161
Ar 5.748039 8.313446 8.953026
Ar 1.534311 2.984788 7.177861
Ar 2.606968 8.674560 5.013924
Ar 1.791845 1.699738 1.660970
Ar 6.931248 8.872447 9.528234
Ar 7.631937 8.084869 3.511689
Ar 1.663994 3.789097 0.099221
Ar 2.410392 9.434205 4.907725
Ar 3.591047 5.381014 6.027246
10
Lattice="10.0 0 0 0 10.0 0 0 0 10.0" Properties=species:S:1:pos:R:3 pbc="T T T" Time=38
Ar 9.492488 9.412593 2.661931
Ar 7.163637 6.752218 1.063489
Ar 2.795002 9.361845 2.114870
Ar 5.000934 0.703365 5.326299
Ar 0.235686 3.909386 1.211396
Ar 9.915035 6.106002 2.430451
Ar 8.535561 2.517637 3.585909
Ar 5.033103 1.219273 3.796859
Ar 5.779298 8.946883 9.758994
Ar 3.560033 9.716920 3.386027
10
Lattice="10.0 0 0 0 10.0 0 0 0 10.0" Properties=species:S:1:pos:R:3 pbc="T T T" Time=39
Ar 5.451366 7.464036 6.905703
Ar 8.579110 5.190929 3.173892
Ar 4.055691 5.738901 7.051877
Ar 7.373179 2.816107 5.626940
Ar 8.679527 6.119031 0.761823
Ar 2.898948 3.339616 5.332727
Ar 9.439186 6.950405 3.660129
Ar 8.402213 8.649453 7.494496
Ar 9.169925 8.375625 4.621997
Ar 3.529020 4.052826 0.744807
10
Lattice="10.0 0 0 0 10.0 0 0 0 10.0" Properties=species:S:1:pos:R:3 pbc="T T T" Time=40
Ar 1.410244 5.515478 1.149474
Ar 9.994583 3.629641 5.284296
Ar 5.316328 2.115933 1.988797
Ar 9.745424 4.928828 5.927654
Ar 7.123369 8.328674 0.312249
Ar 5.882860 0.573232 8.235006
Ar 0.342809 1.383173 3.734350
Ar 1.771332 6.079664 1.192066
Ar 2.560552 7.804367 9.484999
Ar 3.498050 8.388747 8.103671
10
Lattice="10.0 0 0 0 10.0 0 0 0 10.0" Properties=species:S:1:pos:R:3 pbc="T T T" Time=41
Ar 7.369126 3.566927 5.393244
Ar 1.410048 2.068335 7.394697
Ar 6.576959 8.492958 6.925717
Ar 2.117669 7.041547 6.228368
Ar 5.567211 0.538318 9.862670
Ar 8.866772 7.806847 1.137284
Ar 1.246448 5.815919 3.808549
Ar 5.140451 3.509876 4.889636
Ar 5.951172 7.233147 4.348026
Ar 3.467080 2.724668 5.462535
10
Lattice="10.0 0 0 0 10.0 0 0 0 10.0" Properties=species:S:1:pos:R:3 pbc="T T T" Time=42
Ar 3.767185 2.304574 9.688818
Ar 2.825535 0.506918 9.505043
Ar 7.837590 4.869984 1.862638
Ar 4.489892 9.154381 6.529138
Ar 4.011053 2.747961 9.413093
Ar 1.850685 5.040464 4.039562
Ar 2.150087 0.248663 3.882748
Ar 8.070391 0.253888 8.535407
Ar 9.341772 6.661916 9.211082
Ar 3.436131 7.060603 2.821366
10
Lattice="10.0 0 0 0 10.0 0 0 0 10.0" Properties=species:S:1:pos:R:3 pbc="T T T" Time=43
Ar 0.165252 1.042220 3.984394
Ar 4.241021 8.945500 1.615391
Ar 9.098222 1.247010 6.799560
Ar 6.862115 1.267216 6.829910
Ar 2.454895 4.957605 8.963515
Ar 4.834597 2.274080 6.941839
Ar 3.053725 4.681406 3.956946
Ar 1.000345 6.997909 2.181168
Ar 2.732371 6.090685 4.074137
Ar 3.405164 1.396529 0.180203
10
Lattice="10.0 0 0 0 10.0 0 0 0 10.0" Properties=species:S:1:pos:R:3 pbc="T T T" Time=44
Ar 9.143145 4.470377 5.363132
Ar 5.656498 7.384065 3.725737
Ar 0.358854 7.624036 1.736481
Ar 9.234339 3.380051 7.130682
Ar 8.318919 2.476755 1.430776
Ar 7.818509 9.507695 9.844118
Ar 3.957363 9.114149 4.031143
Ar 3.930298 3.741929 5.826930
Ar 6.122970 5.519454 8.937192
Ar 3.374197 5.732455 7.539040
10
Lattice="10.0 0 0 0 10.0 0 0 0 10.0" Properties=species:S:1:pos:R:3 pbc="T T T" Time=45
Ar 8.121039 7.898534 6.741869
Ar 7.071976 5.822629 5.836083
Ar 1.619493 4.001062 6.673404
Ar 1.606561 5.492882 7.431453
Ar 4.182944 9.995905 3.898037
Ar 0.802414 6.741314 2.746397
Ar 4.861032 3.546757 4.105329
Ar 6.860250 0.485951 9.472690
Ar 9.513540 4.948358 3.800260
Ar 3.343230 0.068382 4.897876
10
Lattice="10.0 0 0 0 10.0 0 0 0 10.0" Properties=species:S:1:pos:R:3 pbc="T T T" Time=46
Ar 7.098932 1.326698 8.120594
Ar 8.487457 4.261190 7.946429
Ar 2.880133 0.378088 1.610327
Ar 3.978784 7.605706 7.732237
Ar 0.046968 7.515055 6.365298
Ar 3.786319 3.974932 5.648675
Ar 5.764698 7.979368 4.179516
Ar 9.790202 7.229971 3.118449
Ar 2.904111 4.377262 8.663328
Ar 3.312262 4.404311 2.256713
10
Lattice="10.0 0 0 0 10.0 0 0 0 10.0" Properties=species:S:1:pos:R:3 pbc="T T T" Time=47
Ar 6.076826 4.754865 9.499321
Ar 9.902936 2.699748 0.056774
Ar 4.140773 6.755061 6.547223
Ar 6.351006 9.718583 8.033047
Ar 5.911134 5.034193 8.832391
Ar 6.770226 1.208554 8.550951
Ar 6.668364 2.411979 4.253703
Ar 2.720154 3.973991 6.764208
Ar 6.294679 3.806162 3.526398
Ar 3.281153 8.740252 9.615719
10
Lattice="10.0 0 0 0 10.0 0 0 0 10.0" Properties=species:S:1:pos:R:3 pbc="T T T" Time=48
Ar 5.054721 8.183032 0.878047
Ar 1.318414 1.138307 2.167119
Ar 5.401414 3.132034 1.484119
Ar 8.723229 1.831460 8.333857
Ar 1.775299 2.553331 1.299484
Ar 9.754133 8.442175 1.453227
Ar 7.572031 6.844590 4.327889
Ar 5.650106 0.718011 0.409966
Ar 9.685247 3.235062 8.389468
Ar 3.250043 3.076194 6.974724
10
Lattice="10.0 0 0 0 10.0 0 0 0 10.0" Properties=species:S:1:pos:R:3 pbc="T T T" Time=49
Ar 3.984893 1.691650 2.064690
Ar 2.733894 9.576865 4.277464
Ar 6.662054 9.509007 6.421015
Ar 1.095434 3.944274 8.634646
Ar 7.687187 9.992019 3.958662
Ar 2.738059 5.675859 4.355525
Ar 8.475714 1.277138 4.402109
Ar 8.580057 7.462030 4.055724
Ar 3.075798 2.664026 3.252505
Ar 3.218933 7.412135 4.333730
10
Lattice="10.0 0 0 0 10.0 0 0 0 10.0" Properties=species:S:1:pos:R:3 pbc="T T T" Time=50
Ar 2.915065 5.200264 3.251332
Ar 4.149360 8.015384 6.387834
Ar 7.922694 5.885983 1.357912
Ar 3.467609 6.057044 8.935432
Ar 3.599088 7.430748 6.617816
Ar 5.721984 2.909543 7.257822
Ar 9.379397 5.709685 4.476329
Ar 1.510009 4.206049 7.701481
Ar 6.466379 2.093034 8.115543
Ar 3.187824 1.748076 1.692736
10
Lattice="10.0 0 0 0 10.0 0 0 0 10.0" Properties=species:S:1:pos:R:3 pbc="T T T" Time=51
Ar 1.845258 8.708858 4.437948
Ar 5.564824 6.453910 8.498205
Ar 9.183334 2.262959 6.294811
Ar 5.839784 8.169814 9.236218
Ar 9.510945 4.869407 9.276943
Ar 8.705899 0.143192 0.160120
Ar 0.283124 0.142305 4.550573
Ar 4.439962 0.950066 1.347238
Ar 9.856940 1.522064 2.978607
Ar 3.156726 6.084044 9.051741
10
Lattice="10.0 0 0 0 10.0 0 0 0 10.0" Properties=species:S:1:pos:R:3 pbc="T T T" Time=52
Ar 0.775450 2.217452 5.624564
Ar 6.952979 4.863422 0.619989
Ar 0.443973 8.639934 1.231710
Ar 8.211960 0.282584 9.537007
Ar 5.450111 2.337083 1.924654
Ar 1.689725 7.376939 3.062315
Ar 1.186852 4.574925 4.624818
Ar 7.369914 7.694081 4.992994
Ar 3.247590 0.950995 7.841774
Ar 3.125628 0.420012 6.410746
10
Lattice="10.0 0 0 0 10.0 0 0 0 10.0" Properties=species:S:1:pos:R:3 pbc="T T T" Time=53
Ar 9.705651 5.726037 6.811180
Ar 8.341134 3.272911 2.741761
Ar 1.704611 5.016911 6.168610
Ar 0.584139 2.395377 9.837807
Ar 1.389277 9.804758 4.572366
Ar 4.673551 4.610686 5.964510
Ar 2.090573 9.007544 4.699071
Ar 0.299866 4.438097 8.638750
Ar 6.638238 0.379934 2.704933
Ar 3.094526 4.755979 3.769753
10
Lattice="10.0 0 0 0 10.0 0 0 0 10.0" Properties=species:S:1:pos:R:3 pbc="T T T" Time=54
Ar 8.635851 9.234621 7.997796
Ar 9.729289 1.682399 4.863533
Ar 2.965248 1.393889 1.105507
Ar 2.956318 4.508171 0.138606
Ar 7.328443 7.272433 7.220077
Ar 7.657379 1.844431 8.866707
Ar 2.994295 3.440166 4.773323
Ar 3.229818 1.182113 2.284507
Ar 0.028895 9.808908 7.568187
Ar 3.063416 9.091909 1.128663
10
Lattice="10.0 0 0 0 10.0 0 0 0 10.0" Properties=species:S:1:pos:R:3 pbc="T T T" Time=55
Ar 7.566041 2.743211 9.184409
Ar 1.117444 0.091889 6.985306
Ar 4.225892 7.770864 6.042403
Ar 5.328498 6.620961 0.439408
Ar 3.267941 4.739730 9.867849
Ar 0.641209 9.078176 1.768906
Ar 3.897684 7.873166 4.847516
Ar 6.159771 7.926130 5.930267
Ar 3.419551 9.237882 2.431442
Ar 3.032307 3.427840 8.487570
10
Lattice="10.0 0 0 0 10.0 0 0 0 10.0" Properties=species:S:1:pos:R:3 pbc="T T T" Time=56
Ar 6.496154 6.251770 0.371048
Ar 2.505599 8.501379 9.107077
Ar 5.486485 4.147887 0.979071
Ar 7.700678 8.733751 0.740209
Ar 9.207437 2.207023 2.515620
Ar 3.625039 6.311923 4.671105
Ar 4.801073 2.306167 4.921708
Ar 9.089774 4.670109 9.576257
Ar 6.810287 8.666888 7.294672
Ar 3.001197 7.763759 5.846475
10
Lattice="10.0 0 0 0 10.0 0 0 0 10.0" Properties=species:S:1:pos:R:3 pbc="T T T" Time=57
Ar 5.426267 9.760329 1.557688
Ar 3.893754 6.910868 1.228849
Ar 6.747119 0.524888 5.915970
Ar 0.072860 0.846542 1.041011
Ar 5.146935 9.674332 5.163407
Ar 6.608867 3.545670 7.573304
Ar 5.704396 6.739187 4.995670
Ar 2.019804 1.414091 3.222248
Ar 0.201025 8.095896 2.157901
Ar 2.970084 2.099662 3.205363
10
Lattice="10.0 0 0 0 10.0 0 0 0 10.0" Properties=species:S:1:pos:R:3 pbc="T T T" Time=58
Ar 4.356381 3.268891 2.744325
Ar 5.281909 5.320358 3.350621
Ar 8.007751 6.901885 0.852871
Ar 2.445042 2.959334 1.341813
Ar 1.086433 7.141641 7.811195
Ar 9.592701 0.779402 0.475491
Ar 6.607719 1.172206 5.069633
Ar 4.949834 8.158072 6.868238
Ar 3.591762 7.524903 7.021130
Ar 2.938965 6.435579 0.564261
10
Lattice="10.0 0 0 0 10.0 0 0 0 10.0" Properties=species:S:1:pos:R:3 pbc="T T T" Time=59
Ar 3.286495 6.777454 3.930963
Ar 6.670063 3.729847 5.472393
Ar 9.268399 3.278890 5.789779
Ar 4.817223 5.072128 1.642614
Ar 7.025914 4.608941 0.458975
Ar 2.576536 8.013134 3.377678
Ar 7.511042 5.605224 5.143595
Ar 7.879719 4.901949 0.514232
Ar 6.982500 6.953910 1.884359
Ar 2.907992 0.771602 7.923158
10
Lattice="10.0 0 0 0 10.0 0 0 0 10.0" Properties=species:S:1:pos:R:3 pbc="T T T" Time=60
Ar 2.216611 0.286011 5.117602
Ar 8.058220 2.139342 7.594167
Ar 0.529048 9.655895 0.726688
Ar 7.189400 7.184920 1.943412
Ar 2.965393 2.076241 3.106756
Ar 5.560370 5.246866 6.279865
Ar 8.414365 0.038242 5.217557
Ar 0.809705 1.645872 4.160214
Ar 0.373137 6.382869 6.747599
Ar 2.877019 5.107626 5.282055
10
Lattice="10.0 0 0 0 10.0 0 0 0 10.0" Properties=species:S:1:pos:R:3 pbc="T T T" Time=61
Ar 1.146774 3.794486 6.304278
Ar 9.446369 0.548825 9.715943
Ar 1.789700 6.032899 5.663596
Ar 9.561573 9.297712 2.244211
Ar 8.917034 9.547712 5.755321
Ar 8.544156 2.480682 9.182015
Ar 9.317693 4.471274 5.291518
Ar 3.727533 8.385621 7.805407
Ar 3.763775 5.811833 1.610841
Ar 2.846046 9.443649 2.640952
10
Lattice="10.0 0 0 0 10.0 0 0 0 10.0" Properties=species:S:1:pos:R:3 pbc="T T T" Time=62
Ar 0.076944 7.302952 7.490961
Ar 0.834518 8.958308 1.837720
Ar 3.050352 2.409903 0.600505
Ar 1.933745 1.410504 2.545009
Ar 4.868681 7.019185 8.403882
Ar 1.527943 9.714499 2.084165
Ar 0.221021 8.904305 5.365478
Ar 6.645352 5.125375 1.450598
Ar 7.154413 5.240798 6.474083
Ar 2.815072 3.779672 9.999848
10
Lattice="10.0 0 0 0 10.0 0 0 0 10.0" Properties=species:S:1:pos:R:3 pbc="T T T" Time=63
Ar 9.007120 0.811412 8.677649
Ar 2.222670 7.367783 3.959497
Ar 4.311006 8.786912 5.537413
Ar 4.305917 3.523295 2.845809
Ar 0.820327 4.490658 1.052444
Ar 4.511726 6.948323 4.986313
Ar 1.124339 3.337337 5.439433
Ar 9.563170 1.865130 5.095789
Ar 0.545050 4.669762 1.337325
Ar 2.784098 8.115696 7.358744
10
Lattice="10.0 0 0 0 10.0 0 0 0 10.0" Properties=species:S:1:pos:R:3 pbc="T T T" Time=64
Ar 7.937297 4.319869 9.864339
Ar 3.611308 5.777787 6.081446
Ar 5.571679 5.163824 0.474360
Ar 6.678097 5.636120 3.146623
Ar 6.771973 1.962131 3.701006
Ar 7.495015 4.181583 7.888279
Ar 2.027658 7.770372 5.513388
Ar 2.480988 8.604885 8.740980
Ar 3.935688 4.098726 6.200567
Ar 2.753108 2.451819 4.717596
10
Lattice="10.0 0 0 0 10.0 0 0 0 10.0" Properties=species:S:1:pos:R:3 pbc="T T T" Time=65
Ar 6.867473 7.828327 1.051030
Ar 4.999943 4.187791 8.203394
Ar 6.832354 1.540760 5.411311
Ar 9.050276 7.748944 3.447436
Ar 9.929577 8.846677 4.474543
Ar 0.478310 1.414820 0.790239
Ar 2.930984 2.203413 5.587344
Ar 5.398799 5.344632 2.386170
Ar 0.120367 4.114618 2.938833
Ar 2.722115 6.787941 2.076453
10
Lattice="10.0 0 0 0 10.0 0 0 0 10.0" Properties=species:S:1:pos:R:3 pbc="T T T" Time=66
Ar 5.797656 1.336785 2.237735
Ar 6.388569 2.597843 0.325338
Ar 8.093025 7.917696 0.348263
Ar 1.422456 9.861769 3.748250
Ar 3.087182 5.731222 5.248079
Ar 3.461601 8.648056 3.692183
Ar 3.834307 6.636456 5.661299
Ar 8.316610 2.084380 6.031359
Ar 6.305057 4.130462 9.677106
Ar 2.691119 1.124060 9.435307
10
Lattice="10.0 0 0 0 10.0 0 0 0 10.0" Properties=species:S:1:pos:R:3 pbc="T T T" Time=67
Ar 4.727839 4.845244 3.424440
Ar 7.777195 1.007895 2.447283
Ar 9.353696 4.294633 5.285214
Ar 3.794613 1.974566 4.049038
Ar 6.244809 2.615797 6.021643
Ar 6.444893 5.881292 6.594127
Ar 4.737631 1.069500 5.735253
Ar 1.234422 8.824127 9.676550
Ar 2.489747 4.146305 6.415378
Ar 2.660124 5.460180 6.794161
10
Lattice="10.0 0 0 0 10.0 0 0 0 10.0" Properties=species:S:1:pos:R:3 pbc="T T T" Time=68
Ar 3.658021 8.353699 4.611149
Ar 9.165826 9.417895 4.569246
Ar 0.614367 0.671569 0.222165
Ar 6.166765 4.087365 4.349826
Ar 9.402293 9.500196 6.795128
Ar 9.428189 3.114526 9.496069
Ar 5.641099 5.502716 5.809289
Ar 4.152233 5.563874 3.321740
Ar 8.674435 4.162206 3.153627
Ar 2.629128 9.796300 4.153015
10
Lattice="10.0 0 0 0 10.0 0 0 0 10.0" Properties=species:S:1:pos:R:3 pbc="T T T" Time=69
Ar 2.588202 1.862155 5.797858
Ar 0.554458 7.827893 6.691210
Ar 1.875037 7.048505 5.159116
Ar 8.538912 6.200168 4.650605
Ar 2.559784 6.384602 7.568614
Ar 2.411485 0.347761 2.398012
Ar 6.544565 9.935920 5.883333
Ar 7.070045 2.303621 6.966930
Ar 4.859099 4.177934 9.891827
Ar 2.598154 4.132592 1.511919
10
Lattice="10.0 0 0 0 10.0 0 0 0 10.0" Properties=species:S:1:pos:R:3 pbc="T T T" Time=70
Ar 1.518403 5.370587 6.984575
Ar 1.943087 6.237892 8.813165
Ar 3.135709 3.425441 0.096068
Ar 0.911061 8.312961 4.951376
Ar 5.717276 3.269008 8.342109
Ar 5.394781 7.580998 5.299954
Ar 7.448028 4.369133 5.957387
Ar 9.987854 9.043368 0.612118
Ar 1.043766 4.193663 6.630026
Ar 2.567162 8.468910 8.870814
10
Lattice="10.0 0 0 0 10.0 0 0 0 10.0" Properties=species:S:1:pos:R:3 pbc="T T T" Time=71
Ar 0.448603 8.879018 8.171292
Ar 3.331709 4.647896 0.935127
Ar 4.396387 9.802373 5.033009
Ar 3.283210 0.425754 5.252146
Ar 8.874771 0.153412 9.115607
Ar 8.378076 4.814234 8.201896
Ar 8.351491 8.802343 6.031440
Ar 2.905664 5.783118 4.257307
Ar 7.228434 4.209392 3.368225
Ar 2.536168 2.805228 6.229710
10
Lattice="10.0 0 0 0 10.0 0 0 0 10.0" Properties=species:S:1:pos:R:3 pbc="T T T" Time=72
Ar 9.378877 2.387635 9.358054
Ar 4.720332 3.057901 3.057102
Ar 5.657064 6.179304 9.969951
Ar 5.655359 2.538547 5.552917
Ar 2.032266 7.037815 9.889105
Ar 1.361372 2.047471 1.103837
Ar 9.254955 3.235553 6.105492
Ar 5.823473 2.522868 7.902497
Ar 3.413024 4.224928 0.106365
Ar 2.505177 7.141552 3.588607
10
Lattice="10.0 0 0 0 10.0 0 0 0 10.0" Properties=species:S:1:pos:R:3 pbc="T T T" Time=73
Ar 8.309158 5.896248 0.544814
Ar 6.108955 1.467905 5.179077
Ar 6.917936 2.556127 4.906855
Ar 8.027314 4.651447 5.853724
Ar 5.189755 3.922224 0.662608
Ar 4.344668 9.280707 4.005779
Ar 0.158417 7.668764 6.179543
Ar 8.741282 9.262618 1.547686
Ar 9.597615 4.240465 6.844504
Ar 2.474185 1.477879 0.947504
10
Lattice="10.0 0 0 0 10.0 0 0 0 10.0" Properties=species:S:1:pos:R:3 pbc="T T T" Time=74
Ar 7.239438 9.404860 1.731572
Ar 7.497578 9.877910 7.301050
Ar 8.178809 8.932950 9.843759
Ar 0.399269 6.764346 6.154528
Ar 8.347243 0.806633 1.436110
Ar 7.327964 6.513943 6.907723
Ar 1.061880 2.101974 6.253593
Ar 1.659091 6.002368 5.192881
Ar 5.782205 4.256000 3.582644
Ar 2.443193 5.814206 8.306402
10
Lattice="10.0 0 0 0 10.0 0 0 0 10.0" Properties=species:S:1:pos:R:3 pbc="T T T" Time=75
Ar 6.169717 2.913473 2.918331
Ar 8.886097 8.287776 9.423058
Ar 9.439785 5.309910 4.780627
Ar 2.771204 8.877254 6.455320
Ar 1.504732 7.691043 2.209612
Ar 0.311260 3.747177 9.809666
Ar 1.965343 6.535185 6.327644
Ar 4.576900 2.742118 8.838076
Ar 1.966817 4.271530 0.320797
Ar 2.412201 0.150532 5.665299
10
Lattice="10.0 0 0 0 10.0 0 0 0 10.0" Properties=species:S:1:pos:R:3 pbc="T T T" Time=76
Ar 5.099971 6.422060 4.105104
Ar 0.274616 6.697643 1.545065
Ar 0.700765 1.686863 9.717484
Ar 5.143109 0.990181 6.756134
Ar 4.662242 4.575483 2.983111
Ar 3.294556 0.980412 2.711610
Ar 2.868806 0.968396 6.401695
Ar 7.494740 9.481850 2.483247
Ar 8.151428 4.287060 7.058950
Ar 2.381210 4.486858 3.024198
10
Lattice="10.0 0 0 0 10.0 0 0 0 10.0" Properties=species:S:1:pos:R:3 pbc="T T T" Time=77
Ar 4.030224 9.930647 5.291878
Ar 1.663134 5.107510 3.667072
Ar 1.961744 8.063817 4.654341
Ar 7.515038 3.103030 7.057000
Ar 7.819753 1.459923 3.756610
Ar 6.277819 8.213635 5.613543
Ar 3.772268 5.401603 6.475745
Ar 0.412581 6.221581 6.128418
Ar 4.336072 4.302600 3.797113
Ar 2.350195 8.823267 0.383046
10
Lattice="10.0 0 0 0 10.0 0 0 0 10.0" Properties=species:S:1:pos:R:3 pbc="T T T" Time=78
Ar 2.960479 3.439242 6.478657
Ar 3.051653 3.517377 5.789078
Ar 3.222723 4.440770 9.591198
Ar 9.886974 5.215878 7.357866
Ar 0.977269 8.344356 4.530104
Ar 9.261082 5.446859 8.515476
Ar 4.675723 9.834809 6.549795
Ar 3.330421 2.961313 9.773589
Ar 0.520716 4.318140 0.535276
Ar 2.319174 3.159674 7.741895
10
Lattice="10.0 0 0 0 10.0 0 0 0 10.0" Properties=species:S:1:pos:R:3 pbc="T T T" Time=79
Ar 1.890735 6.947840 7.665435
Ar 4.440169 1.927244 7.911083
Ar 4.483702 0.817725 4.528054
Ar 2.258910 7.328727 7.658733
Ar 4.134785 5.228789 5.303598
Ar 2.244346 2.680081 1.417409
Ar 5.579179 4.268016 6.623846
Ar 6.248260 9.701044 3.418761
Ar 6.705361 4.333679 7.273437
Ar 2.288152 7.496082 5.100743
10
Lattice="10.0 0 0 0 10.0 0 0 0 10.0" Properties=species:S:1:pos:R:3 pbc="T T T" Time=80
Ar 0.881841 0.508558 8.392329
Ar 5.767903 0.285018 0.492835
Ar 5.744676 7.194799 9.464900
Ar 4.630941 9.441541 7.959422
Ar 7.292301 2.113222 6.077092
Ar 5.227513 9.913340 4.319518
Ar 6.482635 8.701223 6.697898
Ar 9.166112 6.440657 7.063956
Ar 2.890006 4.349217 4.011603
Ar 2.257058 1.832458 2.459717
10
Lattice="10.0 0 0 0 10.0 0 0 0 10.0" Properties=species:S:1:pos:R:3 pbc="T T T" Time=81
Ar 2.609688 7.245790 8.887360
Ar 7.095636 8.642791 3.074589
Ar 7.005646 3.571876 4.401748
Ar 4.266230 8.377843 8.491979
Ar 0.449812 8.997659 6.850579
Ar 8.210679 7.146600 7.221627
Ar 7.385905 3.134415 6.771843
Ar 2.083967 3.180267 0.709147
Ar 9.074845 4.364767 0.749880
Ar 2.225964 6.168835 9.818685
10
Lattice="10.0 0 0 0 10.0 0 0 0 10.0" Properties=species:S:1:pos:R:3 pbc="T T T" Time=82
Ar 4.337535 3.983022 9.382391
Ar 8.423370 7.000565 5.656344
Ar 8.266616 9.948951 9.338597
Ar 3.901513 7.314146 9.024538
Ar 3.607322 5.882096 7.624066
Ar 1.193845 4.379859 0.123734
Ar 8.289181 7.567605 6.845786
Ar 5.001823 9.919877 4.354338
Ar 5.259684 4.380318 7.488157
Ar 2.194869 0.505212 7.177653
10
Lattice="10.0 0 0 0 10.0 0 0 0 10.0" Properties=species:S:1:pos:R:3 pbc="T T T" Time=83
Ar 6.065403 0.720338 9.877345
Ar 9.751103 5.358339 8.238099
Ar 9.527585 6.326027 4.275442
Ar 3.536810 6.250458 9.557093
Ar 6.764833 2.766534 8.397553
Ar 4.177010 1.613118 3.025842
Ar 9.192456 2.000793 6.919733
Ar 7.919680 6.659486 7.999530
Ar 1.444522 4.395868 4.226435
Ar 2.163741 4.841496 4.536701
10
Lattice="10.0 0 0 0 10.0 0 0 0 10.0" Properties=species:S:1:pos:R:3 pbc="T T T" Time=84
Ar 7.793267 7.457649 0.372310
Ar 1.078858 3.716022 0.819664
Ar 0.788554 2.703103 9.212287
Ar 3.172108 5.186783 0.089660
Ar 9.922336 9.650968 9.171027
Ar 7.160174 8.846377 5.927950
Ar 0.095711 6.434072 6.993870
Ar 0.837536 3.399095 1.644721
Ar 7.629371 4.411415 0.964702
Ar 2.132613 9.177780 1.895750
10
Lattice="10.0 0 0 0 10.0 0 0 0 10.0" Properties=species:S:1:pos:R:3 pbc="T T T" Time=85
Ar 9.521130 4.194959 0.867277
Ar 2.406620 2.073701 3.401230
Ar 2.049521 9.080181 4.149131
Ar 2.807407 4.123108 0.622227
Ar 3.079837 6.535404 9.944499
Ar 0.143339 6.079635 8.830058
Ar 0.998966 0.867351 7.068006
Ar 3.755387 0.138709 5.289912
Ar 3.825070 4.433682 7.707649
Ar 2.090638 3.507342 9.250118
10
Lattice="10.0 0 0 0 10.0 0 0 0 10.0" Properties=species:S:1:pos:R:3 pbc="T T T" Time=86
Ar 1.248994 0.932269 1.362244
Ar 3.731605 0.427743 5.992316
Ar 3.310484 5.457246 9.085952
Ar 2.442709 3.059435 1.154794
Ar 6.237339 3.419839 0.717972
Ar 3.126503 3.312894 1.732166
Ar 1.902222 5.300629 7.142141
Ar 6.676016 6.881972 8.925607
Ar 0.020768 4.455948 4.450596
Ar 2.048663 7.836904 6.604487
10
Lattice="10.0 0 0 0 10.0 0 0 0 10.0" Properties=species:S:1:pos:R:3 pbc="T T T" Time=87
Ar 2.976855 7.669578 1.857213
Ar 5.056589 8.781785 8.583401
Ar 4.571443 1.834307 4.022770
Ar 2.078036 1.995781 1.687412
Ar 9.394842 0.304280 1.491445
Ar 6.109666 0.546154 4.634273
Ar 2.805477 9.733907 7.216277
Ar 9.596650 3.625238 2.561306
Ar 6.216469 4.478216 1.193539
Ar 2.006659 2.166441 3.958808
10
Lattice="10.0 0 0 0 10.0 0 0 0 10.0" Properties=species:S:1:pos:R:3 pbc="T T T" Time=88
Ar 4.704714 4.406883 2.352182
Ar 6.381574 7.135828 1.174487
Ar 5.832404 8.211369 8.959592
Ar 1.719483 0.934397 2.225194
Ar 2.552345 7.188720 2.264917
Ar 9.086712 7.777147 7.531215
Ar 3.708729 4.167182 7.290410
Ar 2.517285 0.368504 6.197005
Ar 2.412170 4.500483 7.936482
Ar 1.964656 6.495980 1.313128
10
Lattice="10.0 0 0 0 10.0 0 0 0 10.0" Properties=species:S:1:pos:R:3 pbc="T T T" Time=89
Ar 6.432572 1.144187 2.847150
Ar 7.706561 5.489871 3.765573
Ar 7.093359 4.588438 3.896410
Ar 1.360930 9.873013 2.762969
Ar 5.709848 4.073160 3.038389
Ar 2.063768 5.008133 0.428161
Ar 4.611980 8.600458 7.364542
Ar 5.437919 7.111771 9.832704
Ar 8.607871 4.522751 4.679424
Ar 1.922650 0.825521 8.667455
10
Lattice="10.0 0 0 0 10.0 0 0 0 10.0" Properties=species:S:1:pos:R:3 pbc="T T T" Time=90
Ar 8.160431 7.881491 3.342120
Ar 9.031548 3.843912 6.356662
Ar 8.354313 0.965509 8.833224
Ar 1.002378 8.811629 3.300744
Ar 8.867447 0.957713 3.812018
Ar 5.040825 2.239118 3.325107
Ar 5.515336 3.033706 7.438621
Ar 8.358553 3.855038 3.468403
Ar 4.803466 4.545045 1.422420
Ar 1.880547 5.154947 6.021627
10
Lattice="10.0 0 0 0 10.0 0 0 0 10.0" Properties=species:S:1:pos:R:3 pbc="T T T" Time=91
Ar 9.888290 4.618793 3.837089
Ar 0.356398 2.197857 8.947730
Ar 9.615361 7.342743 3.770021
Ar 0.643825 7.750245 3.838519
Ar 2.025001 7.842250 4.585619
Ar 8.017881 9.470103 6.222053
Ar 6.418693 7.466955 7.512699
Ar 1.279187 0.598304 7.104103
Ar 0.999151 4.567292 8.165483
Ar 1.838444 9.484374 3.375798
10
Lattice="10.0 0 0 0 10.0 0 0 0 10.0" Properties=species:S:1:pos:R:3 pbc="T T T" Time=92
Ar 1.616148 1.356094 4.332058
Ar 1.681247 0.551802 1.538799
Ar 0.876409 3.719976 8.706817
Ar 0.285274 6.688861 4.376294
Ar 5.182554 4.726786 5.359221
Ar 0.994937 6.701088 9.119000
Ar 7.322050 1.900203 7.586778
Ar 4.199822 7.341572 0.739801
Ar 7.194835 4.589540 4.908546
Ar 1.796341 3.813801 0.729969
10
Lattice="10.0 0 0 0 10.0 0 0 0 10.0" Properties=species:S:1:pos:R:3 pbc="T T T" Time=93
Ar 3.344005 8.093393 4.827027
Ar 3.006094 8.905746 4.129870
Ar 2.137539 0.097244 3.643618
Ar 9.926555 5.627430 4.914024
Ar 8.340189 1.611316 6.132874
Ar 3.971993 3.932073 2.015946
Ar 8.225405 6.333451 7.660857
Ar 7.120457 4.084838 4.375498
Ar 3.390520 4.611790 1.651608
Ar 1.754244 8.143250 8.084129
10
Lattice="10.0 0 0 0 10.0 0 0 0 10.0" Properties=species:S:1:pos:R:3 pbc="T T T" Time=94
Ar 5.071863 4.830692 5.321997
Ar 4.330941 7.259690 6.720941
Ar 3.398665 6.474510 8.580410
Ar 9.567836 4.565999 5.451753
Ar 1.497810 8.495847 6.906530
Ar 6.949049 1.163060 4.912892
Ar 9.128761 0.766699 7.734936
Ar 0.041093 0.828104 8.011195
Ar 9.586219 4.634040 8.394667
Ar 1.712150 2.472699 5.438297
10
Lattice="10.0 0 0 0 10.0 0 0 0 10.0" Properties=species:S:1:pos:R:3 pbc="T T T" Time=95
Ar 6.799722 1.567988 5.816968
Ar 5.655841 5.613561 9.312041
Ar 4.659737 2.851851 3.517172
Ar 9.209118 3.504568 5.989483
Ar 4.655430 5.380377 7.680186
Ar 9.923408 8.397200 7.808147
Ar 0.032116 5.199946 7.809015
Ar 2.961728 7.571370 1.646891
Ar 5.784615 4.653137 5.139415
Ar 1.670057 6.802149 2.792465
10
Lattice="10.0 0 0 0 10.0 0 0 0 10.0" Properties=species:S:1:pos:R:3 pbc="T T T" Time=96
Ar 8.527582 8.305283 6.311939
Ar 6.980746 3.967436 1.903135
Ar 5.920806 9.229189 8.453942
Ar 8.850400 2.443138 6.527211
Ar 7.813051 2.264907 8.453842
Ar 2.897767 5.631339 0.703403
Ar 0.940628 9.633541 7.884657
Ar 5.877205 4.314290 5.281027
Ar 1.983011 4.672234 1.884165
Ar 1.627965 1.131597 0.146632
10
Lattice="10.0 0 0 0 10.0 0 0 0 10.0" Properties=species:S:1:pos:R:3 pbc="T T T" Time=97
Ar 0.255441 5.042577 6.806910
Ar 8.305662 2.321313 4.494248
Ar 7.181874 5.606525 3.390709
Ar 8.491681 1.381706 7.064937
Ar 0.970659 9.149435 9.227480
Ar 5.872125 2.865479 3.598659
Ar 1.849142 4.067137 7.960301
Ar 8.792699 1.057220 8.915146
Ar 8.181408 4.691333 8.628915
Ar 1.585854 5.461035 7.500816
10
Lattice="10.0 0 0 0 10.0 0 0 0 10.0" Properties=species:S:1:pos:R:3 pbc="T T T" Time=98
Ar 1.983300 1.779871 7.301881
Ar 9.630578 0.675191 7.085360
Ar 8.442941 1.983861 8.327477
Ar 8.132967 0.320276 7.602654
Ar 4.128262 6.033962 0.001125
Ar 8.846504 0.099641 6.493887
Ar 2.757656 8.500731 8.035944
Ar 1.708194 7.800151 2.549266
Ar 4.379784 4.710410 5.373691
Ar 1.543744 9.790474 4.855001
10
Lattice="10.0 0 0 0 10.0 0 0 0 10.0" Properties=species:S:1:pos:R:3 pbc="T T T" Time=99
Ar 3.711075 8.517144 7.796804
Ar 0.955497 9.029069 9.676472
Ar 9.704008 8.361198 3.264245
Ar 7.774249 9.258848 8.140349
Ar 7.285866 2.918488 0.774771
Ar 1.820881 7.333803 9.389115
Ar 3.666199 2.934210 8.111629
Ar 4.623691 4.543078 6.183410
Ar 0.578159 4.729488 2.118470
Ar 1.501692 4.120050 2.209191
10
Lattice="10.0 0 0 0 10.0 0 0 0 10.0" Properties=species:S:1:pos:R:3 pbc="T T T" Time=100
Ar 5.438853 5.254420 8.291728
Ar 2.280539 7.382994 2.267596
Ar 0.965075 4.738572 8.201034
Ar 7.415349 8.197410 8.678223
Ar 0.443471 9.803014 1.548417
Ar 4.795312 4.567890 2.284131
Ar 4.574741 7.367689 8.187314
Ar 7.539188 1.286004 9.817554
Ar 6.776533 4.748566 8.863248
Ar 1.459641 8.449625 9.563379
10
Lattice="10.0 0 0 0 10.0 0 0 0 10.0" Properties=species:S:1:pos:R:3 pbc="T T T" Time=101
Ar 7.166632 1.991696 8.786650
Ar 3.605570 5.736941 4.858723
Ar 2.226141 1.115946 3.137822
Ar 7.056450 7.135972 9.216098
Ar 3.601076 6.687540 2.322064
Ar 7.769752 1.801955 5.179145
Ar 5.483283 1.801166 8.263001
Ar 0.454686 8.028931 3.451696
Ar 2.974973 4.767600 5.608032
Ar 1.417525 2.779244 6.917561
10
Lattice="10.0 0 0 0 10.0 0 0 0 10.0" Properties=species:S:1:pos:R:3 pbc="T T T" Time=102
Ar 8.894328 8.728998 9.281536
Ar 4.930601 4.090886 7.449852
Ar 3.487207 7.493320 8.074611
Ar 6.697552 6.074535 9.753972
Ar 6.758679 3.572067 3.095712
Ar 0.744192 9.036020 8.074159
Ar 6.391821 6.234650 8.338687
Ar 3.370184 4.771859 7.085838
Ar 9.173499 4.786601 2.352854
Ar 1.375410 7.108862 4.271740
10
Lattice="10.0 0 0 0 10.0 0 0 0 10.0" Properties=species:S:1:pos:R:3 pbc="T T T" Time=103
Ar 0.622062 5.466305 9.776434
Ar 6.255715 2.444958 0.040885
Ar 4.748273 3.870695 3.011399
Ar 6.338654 5.013097 0.291846
Ar 9.916283 0.456596 3.869358
Ar 3.718632 6.270085 0.969172
Ar 7.300321 0.668129 8.414361
Ar 6.285682 1.514787 0.719980
Ar 5.371944 4.805477 9.097772
Ar 1.333293 1.438478 1.625920
10
Lattice="10.0 0 0 0 10.0 0 0 0 10.0" Properties=species:S:1:pos:R:3 pbc="T T T" Time=104
Ar 2.349790 2.203610 0.271336
Ar 7.580869 0.799010 2.631926
Ar 6.009339 0.248070 7.948188
Ar 5.979784 3.951644 0.829853
Ar 3.073885 7.341124 4.643005
Ar 6.693079 3.504151 3.864181
Ar 8.208794 5.101625 8.489903
Ar 9.201138 8.257731 4.354112
Ar 1.570390 4.824353 5.842691
Ar 1.291177 5.768095 8.980099
10
Lattice="10.0 0 0 0 10.0 0 0 0 10.0" Properties=species:S:1:pos:R:3 pbc="T T T" Time=105
Ar 4.077518 8.940916 0.766239
Ar 8.906020 9.153162 5.222894
Ar 7.270405 6.625446 2.884978
Ar 5.620976 2.890208 1.367933
Ar 6.231486 4.225651 5.416653
Ar 9.667524 0.738219 6.759191
Ar 9.117268 9.535118 8.565441
Ar 2.116596 5.000572 7.988322
Ar 7.768777 4.843218 2.587534
Ar 1.249062 0.097712 6.334278
10
Lattice="10.0 0 0 0 10.0 0 0 0 10.0" Properties=species:S:1:pos:R:3 pbc="T T T" Time=106
Ar 5.805245 5.678221 1.261141
Ar 0.231170 7.507313 7.813861
Ar 8.531471 3.002821 7.821768
Ar 5.262166 1.828771 1.906013
Ar 9.389087 1.110179 6.190300
Ar 2.641969 7.972288 9.654202
Ar 0.025743 3.968610 8.640979
Ar 5.032055 1.743412 1.622533
Ar 3.967163 4.862082 9.332376
Ar 1.206947 4.427330 3.688457
10
Lattice="10.0 0 0 0 10.0 0 0 0 10.0" Properties=species:S:1:pos:R:3 pbc="T T T" Time=107
Ar 7.532972 2.415527 1.756043
Ar 1.556317 5.861460 0.404823
Ar 9.792530 9.380224 2.758562
Ar 4.903357 0.767334 2.444092
Ar 2.546689 7.994706 6.963949
Ar 5.616380 5.206382 2.549221
Ar 0.934214 8.402099 8.716525
Ar 7.947514 8.486252 5.256743
Ar 0.165558 4.880920 6.077214
Ar 1.164873 8.756933 1.042626
10
Lattice="10.0 0 0 0 10.0 0 0 0 10.0" Properties=species:S:1:pos:R:3 pbc="T T T" Time=108
Ar 9.260701 9.152833 2.250947
Ar 2.881463 4.215607 2.995784
Ar 1.053571 5.757618 7.695349
Ar 8.965317 2.978711 1.865152
Ar 5.704291 4.879232 7.737595
Ar 8.590791 2.440476 5.444240
Ar 1.842702 2.835597 8.792080
Ar 6.442202 1.956277 0.007973
Ar 6.363952 4.899757 2.822050
Ar 1.122799 3.086535 8.396795
10
Lattice="10.0 0 0 0 10.0 0 0 0 10.0" Properties=species:S:1:pos:R:3 pbc="T T T" Time=109
Ar 0.988430 5.890140 2.745851
Ar 4.206610 2.569752 5.586746
Ar 2.314609 2.135013 2.632141
Ar 3.027278 5.190088 1.286212
Ar 8.861897 1.763756 8.511238
Ar 1.565201 9.674570 8.339259
Ar 2.751186 7.269096 8.867632
Ar 4.936889 5.426302 4.759203
Ar 2.562345 4.918594 9.566887
Ar 1.080730 7.416138 5.750964
10
Lattice="10.0 0 0 0 10.0 0 0 0 10.0" Properties=species:S:1:pos:R:3 pbc="T T T" Time=110
Ar 2.716159 2.627446 3.240754
Ar 5.531756 0.923897 8.177708
Ar 3.575647 8.512412 7.568933
Ar 7.089239 7.401466 0.707272
Ar 2.019502 8.648281 9.284881
Ar 4.539612 6.908664 1.234279
Ar 3.636386 1.710711 8.930399
Ar 3.431576 8.896327 9.510433
Ar 8.760739 4.937432 6.311723
Ar 1.061944 1.737623 3.117918
10
Lattice="10.0 0 0 0 10.0 0 0 0 10.0" Properties=species:S:1:pos:R:3 pbc="T T T" Time=111
Ar 4.443886 9.364753 3.735659
Ar 6.856903 9.278041 0.768670
Ar 4.836684 4.889810 2.505725
Ar 1.151211 9.612847 0.128366
Ar 5.177107 5.532807 0.058524
Ar 7.514022 4.142760 4.129298
Ar 4.521587 6.152328 8.993166
Ar 1.926264 2.366352 4.261662
Ar 4.959123 4.956259 3.056526
Ar 1.043159 6.059108 0.484873
10
Lattice="10.0 0 0 0 10.0 0 0 0 10.0" Properties=species:S:1:pos:R:3 pbc="T T T" Time=112
Ar 6.171636 6.102073 4.230566
Ar 8.182058 7.632183 3.359629
Ar 6.097727 1.267203 7.442492
Ar 5.213187 1.824230 9.549460
Ar 8.334573 2.417308 0.832150
Ar 0.488431 1.376854 7.024319
Ar 5.406780 0.593951 9.055936
Ar 0.421084 5.836404 9.012932
Ar 1.157507 4.975087 9.801328
Ar 1.024349 0.380580 7.851825
10
Lattice="10.0 0 0 0 10.0 0 0 0 10.0" Properties=species:S:1:pos:R:3 pbc="T T T" Time=113
Ar 7.899387 2.839393 4.725473
Ar 9.507214 5.986325 5.950587
Ar 8.941351 8.503484 9.498623
Ar 9.275162 4.035612 8.970553
Ar 1.492118 9.301736 1.605901
Ar 3.462841 8.610948 9.919341
Ar 6.291894 5.035649 9.118575
Ar 8.915904 9.306456 3.764202
Ar 5.773307 4.135025 9.426771
Ar 1.005539 4.702052 5.218778
10
Lattice="10.0 0 0 0 10.0 0 0 0 10.0" Properties=species:S:1:pos:R:3 pbc="T T T" Time=114
Ar 9.627136 9.576712 5.220381
Ar 0.832372 4.340468 8.541545
Ar 1.784987 5.739774 1.554726
Ar 3.337106 6.247182 8.391726
Ar 4.649664 6.186163 2.379653
Ar 6.437187 5.845159 2.814265
Ar 7.177027 9.477152 9.181164
Ar 7.410629 2.776620 8.515369
Ar 0.389203 3.294853 9.052315
Ar 0.986792 9.023405 2.585828
10
Lattice="10.0 0 0 0 10.0 0 0 0 10.0" Properties=species:S:1:pos:R:3 pbc="T T T" Time=115
Ar 1.354884 6.314030 5.715288
Ar 2.157521 2.694620 1.132507
Ar 4.628623 2.976064 3.610828
Ar 7.399050 8.458752 7.812899
Ar 7.807208 3.070591 3.153406
Ar 9.411536 3.079371 5.709187
Ar 8.062007 3.918390 9.243843
Ar 5.905354 6.246784 3.266537
Ar 5.005251 2.454944 8.677769
Ar 0.968055 3.344751 9.952875
10
Lattice="10.0 0 0 0 10.0 0 0 0 10.0" Properties=species:S:1:pos:R:3 pbc="T T T" Time=116
Ar 3.082632 3.051349 6.210197
Ar 3.482755 1.048972 3.723370
Ar 7.472258 0.212354 5.666930
Ar 1.460995 0.670322 7.234072
Ar 0.964727 9.955025 3.927153
Ar 2.385912 0.313577 8.604116
Ar 8.946987 8.359628 9.306523
Ar 4.400077 9.716948 8.017705
Ar 9.621213 1.614834 8.303321
Ar 0.949318 7.666097 7.319920
10
Lattice="10.0 0 0 0 10.0 0 0 0 10.0" Properties=species:S:1:pos:R:3 pbc="T T T" Time=117
Ar 4.810381 9.788668 6.705105
Ar 4.808013 9.403310 6.314258
Ar 0.315892 7.448643 7.723033
Ar 5.522941 2.881892 6.655246
Ar 4.122245 6.839458 4.700899
Ar 5.360288 7.547782 1.499046
Ar 9.831966 2.800866 9.369202
Ar 2.894801 3.187112 2.768873
Ar 4.237176 0.774723 7.928873
Ar 0.930558 1.987456 4.686941
10
Lattice="10.0 0 0 0 10.0 0 0 0 10.0" Properties=species:S:1:pos:R:3 pbc="T T T" Time=118
Ar 6.538129 6.525988 7.200014
Ar 6.133273 7.757649 8.905145
Ar 3.159527 4.684933 9.779135
Ar 9.584860 5.093472 6.076371
Ar 7.279762 3.723890 5.474644
Ar 8.334686 4.781979 4.394024
Ar 0.716944 7.242104 9.431882
Ar 1.389534 6.657273 7.520038
Ar 8.853133 9.934616 7.554428
Ar 0.911798 6.308813 2.053961
10
Lattice="10.0 0 0 0 10.0 0 0 0 10.0" Properties=species:S:1:pos:R:3 pbc="T T T" Time=119
Ar 8.216130 5.163744 9.479961
Ar 7.508304 4.211511 9.710943
Ar 6.003161 1.921222 1.835238
Ar 3.646780 7.305054 5.497496
Ar 0.437279 0.608321 6.248390
Ar 1.309085 2.016176 7.289001
Ar 1.601922 1.683343 9.494562
Ar 9.884269 0.127435 2.271203
Ar 3.469066 9.094549 7.180035
Ar 0.893037 0.630170 9.420982
10
Lattice="10.0 0 0 0 10.0 0 0 0 10.0" Properties=species:S:1:pos:R:3 pbc="T T T" Time=120
Ar 9.894132 3.801494 1.759899
Ar 8.883332 0.665380 0.516750
Ar 8.846795 9.157511 3.891340
Ar 7.708709 9.516638 4.918630
Ar 3.594776 7.492733 7.022152
Ar 4.283495 9.250389 0.183950
Ar 2.486896 6.124585 9.557253
Ar 8.379008 3.597594 7.022357
Ar 8.084999 8.254482 6.805641
Ar 0.874276 4.951527 6.788004
10
Lattice="10.0 0 0 0 10.0 0 0 0 10.0" Properties=species:S:1:pos:R:3 pbc="T T T" Time=121
Ar 1.572268 2.439424 4.039794
Ar 0.258227 7.119068 1.322601
Ar 1.690430 6.393799 5.947443
Ar 1.770637 1.728218 4.339761
Ar 6.752263 4.377130 7.795903
Ar 7.257913 6.484620 3.078900
Ar 3.372002 0.566021 9.619965
Ar 6.873747 7.067754 1.773512
Ar 2.700933 7.414418 6.431250
Ar 0.855384 9.272687 4.155016
10
Lattice="10.0 0 0 0 10.0 0 0 0 10.0" Properties=species:S:1:pos:R:3 pbc="T T T" Time=122
Ar 3.250404 1.077355 6.319689
Ar 1.633122 3.572757 2.128452
Ar 4.534127 3.630068 8.003489
Ar 5.832502 3.939823 3.760943
Ar 9.909750 1.261527 8.569653
Ar 0.232331 3.718851 5.973851
Ar 4.257108 5.007457 9.682678
Ar 5.368484 0.537912 6.524667
Ar 7.316868 6.574350 6.056866
Ar 0.836493 3.593847 1.522026
10
Lattice="10.0 0 0 0 10.0 0 0 0 10.0" Properties=species:S:1:pos:R:3 pbc="T T T" Time=123
Ar 4.948449 9.643904 8.629691
Ar 3.008018 0.026446 2.934302
Ar 7.377752 0.866263 0.059500
Ar 9.874458 6.222811 3.152019
Ar 3.067238 8.145925 9.343403
Ar 3.206781 0.953034 8.868911
Ar 5.142214 9.448893 9.745390
Ar 3.863189 4.008119 1.275712
Ar 1.932875 5.734355 5.682517
Ar 0.817601 7.915005 8.889037
10
Lattice="10.0 0 0 0 10.0 0 0 0 10.0" Properties=species:S:1:pos:R:3 pbc="T T T" Time=124
Ar 6.646486 8.210454 0.939692
Ar 4.381055 6.480183 3.738737
Ar 0.221378 8.102453 2.115504
Ar 3.916414 8.505800 2.543094
Ar 6.224725 5.030321 0.117153
Ar 6.181231 8.187216 1.763971
Ar 6.027320 3.890335 9.808111
Ar 2.357903 7.478324 6.026758
Ar 6.548883 4.894361 5.308167
Ar 0.800567 2.236114 6.257463
10
Lattice="10.0 0 0 0 10.0 0 0 0 10.0" Properties=species:S:1:pos:R:3 pbc="T T T" Time=125
Ar 8.344512 6.777021 3.249575
Ar 5.754091 2.933921 4.543172
Ar 3.065007 5.338644 4.171509
Ar 7.958369 0.788789 1.934168
Ar 9.382212 1.914713 0.890905
Ar 9.155672 5.421408 4.659031
Ar 6.912448 8.331756 9.870948
Ar 0.852617 0.948529 0.777804
Ar 1.164891 4.054366 4.933818
Ar 0.783526 6.557223 3.625887
10
Lattice="10.0 0 0 0 10.0 0 0 0 10.0" Properties=species:S:1:pos:R:3 pbc="T T T" Time=126
Ar 0.039468 5.343435 5.564899
Ar 7.127128 9.387655 5.347610
Ar 5.908636 2.574836 6.227514
Ar 2.000318 3.071783 1.325242
Ar 2.539736 8.799312 1.664713
Ar 2.133188 2.655753 7.548647
Ar 7.797541 2.772969 9.933728
Ar 9.347330 4.418734 5.528851
Ar 5.780899 3.214371 4.559470
Ar 0.766486 0.878331 0.994311
10
Lattice="10.0 0 0 0 10.0 0 0 0 10.0" Properties=species:S:1:pos:R:3 pbc="T T T" Time=127
Ar 1.734415 3.909857 7.880214
Ar 8.500165 5.841388 6.152048
Ar 8.752272 9.811029 8.283518
Ar 6.042258 5.354770 0.716323
Ar 5.697233 5.683941 2.438517
Ar 5.110700 9.890088 0.438275
Ar 8.682634 7.214181 9.996508
Ar 7.842080 7.888916 0.279894
Ar 0.396908 2.374369 4.185124
Ar 0.749453 5.199445 8.362731
10
Lattice="10.0 0 0 0 10.0 0 0 0 10.0" Properties=species:S:1:pos:R:3 pbc="T T T" Time=128
Ar 3.429445 2.476392 0.195534
Ar 9.873202 2.295120 6.956486
Ar 1.595909 7.047208 0.339557
Ar 0.084200 7.637761 0.107405
Ar 8.854732 2.568569 3.212321
Ar 8.088212 7.124424 3.327903
Ar 9.567726 1.655394 0.059288
Ar 6.336746 1.358987 5.030933
Ar 5.012914 1.534381 3.810743
Ar 0.732418 9.520558 5.731150
10
Lattice="10.0 0 0 0 10.0 0 0 0 10.0" Properties=species:S:1:pos:R:3 pbc="T T T" Time=129
Ar 5.124508 1.042884 2.510837
Ar 1.246239 8.748853 7.760923
Ar 4.439548 4.283389 2.395595
Ar 4.126148 9.920743 9.498449
Ar 2.012222 9.453204 3.986163
Ar 1.065723 4.358760 6.217531
Ar 0.452781 6.096636 0.122082
Ar 4.831450 4.829027 9.781961
Ar 9.628920 0.694392 3.436361
Ar 0.715351 3.841712 3.099585
10
Lattice="10.0 0 0 0 10.0 0 0 0 10.0" Properties=species:S:1:pos:R:3 pbc="T T T" Time=130
Ar 6.819571 9.609376 4.826141
Ar 2.619275 5.202586 8.565360
Ar 7.283249 1.519546 4.451643
Ar 8.168034 2.203749 8.889484
Ar 5.169713 6.337839 4.760005
Ar 4.043234 1.593095 9.107159
Ar 1.337837 0.537878 0.184875
Ar 3.326179 8.299064 4.533013
Ar 4.244899 9.854408 3.061956
Ar 0.698285 8.162866 0.468020
10
Lattice="10.0 0 0 0 10.0 0 0 0 10.0" Properties=species:S:1:pos:R:3 pbc="T T T" Time=131
Ar 8.514634 8.175868 7.141445
Ar 3.992312 1.656320 9.369797
Ar 0.126949 8.755703 6.507692
Ar 2.209920 4.486756 8.280519
Ar 8.327206 3.222473 5.533847
Ar 7.020745 8.827431 1.996788
Ar 2.222892 4.979120 0.247669
Ar 1.820908 1.769102 9.284062
Ar 8.860877 9.014423 2.687550
Ar 0.681218 2.484019 7.836454
10
Lattice="10.0 0 0 0 10.0 0 0 0 10.0" Properties=species:S:1:pos:R:3 pbc="T T T" Time=132
Ar 0.209694 6.742343 9.456753
Ar 5.365348 8.110054 0.174234
Ar 2.970654 5.991877 8.563739
Ar 6.251806 6.769762 7.671553
Ar 1.484700 0.107105 6.307689
Ar 9.998256 6.061767 4.886416
Ar 3.107947 9.420366 0.310462
Ar 0.315634 5.239136 4.035115
Ar 3.476856 8.174443 2.313140
Ar 0.664151 6.805169 5.204889
10
Lattice="10.0 0 0 0 10.0 0 0 0 10.0" Properties=species:S:1:pos:R:3 pbc="T T T" Time=133
Ar 1.904724 5.308807 1.772073
Ar 6.738395 4.563787 0.978672
Ar 5.814388 3.228062 0.619774
Ar 0.293694 9.052769 7.062572
Ar 4.642194 6.991737 7.081531
Ar 2.975750 3.296101 7.776038
Ar 3.993003 3.861616 0.373272
Ar 8.810360 8.709163 8.786183
Ar 8.092854 7.334465 1.938736
Ar 0.647070 1.126323 2.573309
10
Lattice="10.0 0 0 0 10.0 0 0 0 10.0" Properties=species:S:1:pos:R:3 pbc="T T T" Time=134
Ar 3.599754 3.875272 4.087393
Ar 8.111445 1.017519 1.783109
Ar 8.658123 0.464246 2.675808
Ar 4.335582 1.335775 6.453589
Ar 7.799688 3.876370 7.855374
Ar 5.953747 0.531225 0.666094
Ar 4.878056 8.302871 0.436077
Ar 7.305144 2.179015 3.537075
Ar 2.708852 6.494484 1.564338
Ar 0.629427 5.446861 9.941469
10
Lattice="10.0 0 0 0 10.0 0 0 0 10.0" Properties=species:S:1:pos:R:3 pbc="T T T" Time=135
Ar 5.294782 2.441737 6.402714
Ar 9.484531 7.471300 2.587560
Ar 1.501845 7.700373 4.731832
Ar 8.377475 3.618782 5.844602
Ar 0.957182 0.761003 8.629216
Ar 8.931743 7.766349 3.556148
Ar 5.763088 2.744132 0.498880
Ar 5.799924 5.648866 8.287972
Ar 7.324850 5.654503 1.189941
Ar 0.611784 9.767399 7.309630
10
Lattice="10.0 0 0 0 10.0 0 0 0 10.0" Properties=species:S:1:pos:R:3 pbc="T T T" Time=136
Ar 6.989811 1.008202 8.718035
Ar 0.857530 3.925172 3.391854
Ar 4.345663 4.936402 6.788006
Ar 2.419368 5.901789 5.235614
Ar 4.114675 7.645636 9.403057
Ar 1.909737 5.001475 6.446201
Ar 6.648119 7.185390 0.561683
Ar 4.294698 9.118727 3.038878
Ar 1.940848 4.814523 0.815545
Ar 0.594140 4.087937 4.677790
10
Lattice="10.0 0 0 0 10.0 0 0 0 10.0" Properties=species:S:1:pos:R:3 pbc="T T T" Time=137
Ar 8.684838 9.574667 1.033355
Ar 2.230593 0.379011 4.196036
Ar 7.189484 2.172430 8.844181
Ar 6.461261 8.184796 4.626626
Ar 7.272181 4.530302 0.176943
Ar 4.887665 2.236635 9.336365
Ar 7.533150 1.626648 0.624486
Ar 2.789472 2.588587 7.789782
Ar 6.556846 3.974543 0.441149
Ar 0.576485 8.408442 2.045906
10
Lattice="10.0 0 0 0 10.0 0 0 0 10.0" Properties=species:S:1:pos:R:3 pbc="T T T" Time=138
Ar 0.379866 8.141132 3.348676
Ar 3.603697 6.832822 5.000011
Ar 0.033311 9.408457 0.900359
Ar 0.503181 0.467852 4.017577
Ar 0.429685 1.414968 0.950829
Ar 7.865567 9.471752 2.226595
Ar 8.418182 6.067905 0.687289
Ar 1.284245 6.058448 2.540688
Ar 1.172845 3.134562 0.066751
Ar 0.558782 2.728969 9.414224
10
Lattice="10.0 0 0 0 10.0 0 0 0 10.0" Properties=species:S:1:pos:R:3 pbc="T T T" Time=139
Ar 2.074893 6.707595 5.663996
Ar 4.976801 3.286633 5.803987
Ar 2.877140 6.644487 2.956506
Ar 4.545100 2.750908 3.408527
Ar 3.582181 8.295747 1.726565
Ar 0.843462 6.706867 5.116826
Ar 9.303219 0.509155 0.750117
Ar 9.779016 9.528309 7.291591
Ar 5.793851 2.298481 9.690508
Ar 0.541083 7.049493 6.782544
10
Lattice="10.0 0 0 0 10.0 0 0 0 10.0" Properties=species:S:1:pos:R:3 pbc="T T T" Time=140
Ar 3.769919 5.274056 7.979318
Ar 6.349906 9.740445 6.607963
Ar 5.720969 3.880502 5.012649
Ar 8.587021 5.033969 2.799480
Ar 6.734674 5.176519 2.502319
Ar 3.821352 3.941983 8.007058
Ar 0.188255 4.950404 0.812944
Ar 8.273789 2.998166 2.042493
Ar 0.412827 1.461067 9.312095
Ar 0.525420 1.371372 4.153013
10
Lattice="10.0 0 0 0 10.0 0 0 0 10.0" Properties=species:S:1:pos:R:3 pbc="T T T" Time=141
Ar 5.465144 3.840513 0.294709
Ar 7.723012 6.194257 7.411943
Ar 8.564796 1.116510 7.068796
Ar 2.628941 7.317028 2.190430
Ar 9.887170 2.057299 3.278067
Ar 6.799069 1.177088 0.897164
Ar 1.073292 9.391654 0.875772
Ar 6.768562 6.468026 6.793396
Ar 5.031803 0.623653 8.933683
Ar 0.509731 5.693263 1.523542
10
Lattice="10.0 0 0 0 10.0 0 0 0 10.0" Properties=species:S:1:pos:R:3 pbc="T T T" Time=142
Ar 7.160361 2.407176 2.610095
Ar 9.096117 2.648069 8.215923
Ar 1.408622 8.352517 9.124943
Ar 6.670887 9.600095 1.581390
Ar 3.039638 8.938083 4.053811
Ar 9.776794 8.411988 3.787274
Ar 1.958331 3.832904 0.938597
Ar 5.263333 9.937874 1.544295
Ar 9.650780 9.786239 8.555270
Ar 0.494042 0.015154 8.894071
10
Lattice="10.0 0 0 0 10.0 0 0 0 10.0" Properties=species:S:1:pos:R:3 pbc="T T T" Time=143
Ar 8.855577 0.973840 4.925482
Ar 0.469366 9.101840 9.019995
Ar 4.252448 5.588524 1.181090
Ar 0.712835 1.883163 0.972350
Ar 6.192107 5.818867 4.829555
Ar 2.754520 5.646887 6.677386
Ar 2.843369 8.274155 1.001421
Ar 3.757961 3.407763 6.295101
Ar 4.269755 8.948824 8.176856
Ar 0.478351 4.337043 6.264600
10
Lattice="10.0 0 0 0 10.0 0 0 0 10.0" Properties=species:S:1:pos:R:3 pbc="T T T" Time=144
Ar 0.550794 9.540506 7.240869
Ar 1.842614 5.555613 9.824067
Ar 7.096291 2.824506 3.237241
Ar 4.754920 4.166196 0.363314
Ar 9.344575 2.699651 5.605299
Ar 5.732246 2.881786 9.567499
Ar 3.728408 2.715407 1.064245
Ar 2.252452 6.877685 1.045903
Ar 8.895365 8.113214 7.801107
Ar 0.456010 8.657150 3.632459
10
Lattice="10.0 0 0 0 10.0 0 0 0 10.0" Properties=species:S:1:pos:R:3 pbc="T T T" Time=145
Ar 2.246011 8.107171 9.556256
Ar 3.215862 2.009386 0.628139
Ar 9.940135 0.060487 5.293393
Ar 8.797005 6.449230 9.754279
Ar 2.497044 9.580435 6.381043
Ar 8.709973 0.116689 2.457612
Ar 4.613447 7.156658 1.127071
Ar 0.746945 0.347603 5.796705
Ar 3.520975 7.277604 7.425358
Ar 0.433666 2.977256 1.000317
10
Lattice="10.0 0 0 0 10.0 0 0 0 10.0" Properties=species:S:1:pos:R:3 pbc="T T T" Time=146
Ar 3.941233 6.673841 1.871641
Ar 4.589102 8.463137 1.432190
Ar 2.783978 7.296467 7.349544
Ar 2.839083 8.732309 9.145250
Ar 5.649513 6.461220 7.156787
Ar 1.687722 7.351567 5.347706
Ar 5.498469 1.597891 1.189907
Ar 9.241445 3.817544 0.547527
Ar 8.146580 6.441990 7.049612
Ar 0.411322 7.297363 8.368175
10
Lattice="10.0 0 0 0 10.0 0 0 0 10.0" Properties=species:S:1:pos:R:3 pbc="T T T" Time=147
Ar 5.636454 5.240513 4.187029
Ar 5.962343 4.916888 2.236241
Ar 5.630030 4.533235 9.407075
Ar 6.881162 1.015387 8.536222
Ar 8.801999 3.341999 7.932536
Ar 4.665471 4.586444 8.237800
Ar 6.383492 6.039123 1.252744
Ar 7.733718 7.286704 5.296965
Ar 2.772187 5.606372 6.673863
Ar 0.388977 1.617470 5.736033
10
Lattice="10.0 0 0 0 10.0 0 0 0 10.0" Properties=species:S:1:pos:R:3 pbc="T T T" Time=148
Ar 7.331667 3.807164 6.502422
Ar 7.335591 1.370658 3.040288
Ar 8.476088 1.769999 1.464605
Ar 0.923240 3.298471 7.927198
Ar 1.954483 0.222778 8.708285
Ar 7.643217 1.821321 1.127887
Ar 7.268515 0.480356 1.315582
Ar 6.225992 0.755865 0.046402
Ar 7.397796 4.770754 6.298113
Ar 0.366629 5.937576 3.103893
10
Lattice="10.0 0 0 0 10.0 0 0 0 10.0" Properties=species:S:1:pos:R:3 pbc="T T T" Time=149
Ar 9.026877 2.373818 8.817832
Ar 8.708817 7.824356 3.844380
Ar 1.322213 9.006756 3.522215
Ar 4.965319 5.581554 7.318174
Ar 5.106967 7.103557 9.484035
Ar 0.620895 9.056202 4.017891
Ar 8.153566 4.921660 1.378361
Ar 4.718266 4.225027 4.795841
Ar 2.023403 3.935137 5.922362
Ar 0.344282 0.257683 0.471753
10
Lattice="10.0 0 0 0 10.0 0 0 0 10.0" Properties=species:S:1:pos:R:3 pbc="T T T" Time=150
Ar 0.722292 0.943446 1.132611
Ar 0.082031 4.278056 4.648525
Ar 4.155506 6.244340 5.574610
Ar 9.007397 7.864638 6.709150
Ar 8.259451 3.984337 0.259784
Ar 3.611501 6.290457 6.913066
Ar 9.038582 9.362758 1.441186
Ar 3.210491 7.694190 9.545224
Ar 6.648805 3.096546 5.547242
Ar 0.321935 4.577790 7.839612
10
Lattice="10.0 0 0 0 10.0 0 0 0 10.0" Properties=species:S:1:pos:R:3 pbc="T T T" Time=151
Ar 2.417705 9.513075 3.447390
Ar 1.455236 0.731752 5.452670
Ar 6.966706 3.483483 7.642620
Ar 3.049475 0.147721 6.100126
Ar 1.411935 0.865117 1.035536
Ar 6.624207 3.523159 9.792627
Ar 9.923599 3.803855 1.504010
Ar 1.702716 1.163353 4.294605
Ar 1.274207 2.257955 5.172122
Ar 0.299588 8.897896 5.207472
10
Lattice="10.0 0 0 0 10.0 0 0 0 10.0" Properties=species:S:1:pos:R:3 pbc="T T T" Time=152
Ar 4.113123 8.082708 5.762168
Ar 2.828442 7.185447 6.256814
Ar 9.777961 0.722621 9.710499
Ar 7.091554 2.430804 5.491101
Ar 4.564418 7.745898 1.811288
Ar 9.636860 0.755865 2.672319
Ar 0.808611 8.244948 1.566836
Ar 0.194942 4.632517 9.043987
Ar 5.899608 1.419363 4.797002
Ar 0.277242 3.218001 2.575332
10
Lattice="10.0 0 0 0 10.0 0 0 0 10.0" Properties=species:S:1:pos:R:3 pbc="T T T" Time=153
Ar 5.808551 6.652322 8.076934
Ar 4.201585 3.638994 7.061185
Ar 2.589217 7.961759 1.778368
Ar 1.133667 4.713874 4.882094
Ar 7.716902 4.626679 2.587038
Ar 2.649511 7.988571 5.552021
Ar 1.693622 2.686042 1.629662
Ar 8.687245 8.101683 3.793078
Ar 0.524959 0.580960 4.421944
Ar 0.254887 7.538097 9.943192
10
Lattice="10.0 0 0 0 10.0 0 0 0 10.0" Properties=species:S:1:pos:R:3 pbc="T T T" Time=154
Ar 7.504031 5.221973 0.391679
Ar 5.574676 0.092504 7.865576
Ar 5.400472 5.200898 3.846235
Ar 5.175816 6.996974 4.273108
Ar 0.869385 1.507459 3.362788
Ar 5.662161 5.221274 8.431724
Ar 2.578635 7.127134 1.692487
Ar 7.179547 1.570849 8.542167
Ar 5.150275 9.742527 4.046865
Ar 0.232533 1.858195 7.311053
10
Lattice="10.0 0 0 0 10.0 0 0 0 10.0" Properties=species:S:1:pos:R:3 pbc="T T T" Time=155
Ar 9.199511 3.791624 2.706425
Ar 6.947767 6.546013 8.669967
Ar 8.211729 2.440036 5.914102
Ar 9.217964 9.280075 3.664122
Ar 4.021869 8.388240 4.138538
Ar 8.674811 2.453978 1.311427
Ar 3.463647 1.568227 1.755312
Ar 5.671849 5.040015 3.291257
Ar 9.775591 8.904095 3.671786
Ar 0.210179 6.178293 4.678912
10
Lattice="10.0 0 0 0 10.0 0 0 0 10.0" Properties=species:S:1:pos:R:3 pbc="T T T" Time=156
Ar 0.894993 2.361275 5.021172
Ar 8.320853 2.999518 9.474356
Ar 1.022989 9.679146 7.981963
Ar 3.260109 1.563202 3.055143
Ar 7.174352 5.269020 4.914287
Ar 1.687459 9.686682 4.191129
Ar 4.348659 6.009319 1.818137
Ar 4.164156 8.509185 8.040350
Ar 4.400906 8.065664 3.296707
Ar 0.187825 0.498392 2.046772
10
Lattice="10.0 0 0 0 10.0 0 0 0 10.0" Properties=species:S:1:pos:R:3 pbc="T T T" Time=157
Ar 2.590479 0.930938 7.335931
Ar 9.693939 9.453023 0.278745
Ar 3.834249 6.918255 0.049824
Ar 7.960771 3.402324 2.455215
Ar 0.326836 2.149801 5.690037
Ar 4.700103 6.919374 7.070818
Ar 5.233671 0.450412 1.880962
Ar 2.656463 1.978355 2.789442
Ar 8.367706 7.671240 2.912577
Ar 0.165472 4.818489 9.414632
10
Lattice="10.0 0 0 0 10.0 0 0 0 10.0" Properties=species:S:1:pos:R:3 pbc="T T T" Time=158
Ar 4.285965 9.500602 9.650691
Ar 1.067025 5.906528 1.083134
Ar 6.645509 4.157365 2.117686
Ar 2.661434 5.241448 1.855286
Ar 3.479319 9.030581 6.465787
Ar 7.712746 4.152062 9.950510
Ar 6.118683 4.891502 1.943785
Ar 1.148769 5.447525 7.538534
Ar 2.334506 7.276818 2.528449
Ar 0.143117 9.138587 6.782491
10
Lattice="10.0 0 0 0 10.0 0 0 0 10.0" Properties=species:S:1:pos:R:3 pbc="T T T" Time=159
Ar 5.981452 8.070266 1.965452
Ar 2.440111 2.360033 1.887523
Ar 9.456768 1.396474 4.185548
Ar 7.362098 7.080572 1.255356
Ar 6.631802 5.911362 7.241537
Ar 0.725390 1.384751 2.830200
Ar 7.003696 9.332591 2.006607
Ar 9.641076 8.916695 2.287626
Ar 6.301306 6.882396 2.144321
Ar 0.120762 3.458684 4.150350
10
Lattice="10.0 0 0 0 10.0 0 0 0 10.0" Properties=species:S:1:pos:R:3 pbc="T T T" Time=160
Ar 7.676938 6.639930 4.280213
Ar 3.813172 8.813545 2.691898
Ar 2.262383 8.643448 6.251552
Ar 2.062784 8.919677 0.655434
Ar 9.784285 2.792143 8.017286
Ar 3.738037 8.617439 5.709884
Ar 7.894350 3.765817 2.071294
Ar 8.133383 2.385865 7.036718
Ar 0.268107 6.487987 1.760201
Ar 0.098406 7.778782 1.518208
10
Lattice="10.0 0 0 0 10.0 0 0 0 10.0" Properties=species:S:1:pos:R:3 pbc="T T T" Time=161
Ar 9.372294 5.209785 6.594950
Ar 5.186241 5.267060 3.496268
Ar 5.067973 5.890412 8.317578
Ar 6.763623 0.758784 0.055391
Ar 2.936768 9.672924 8.793035
Ar 6.750699 5.850121 8.589549
Ar 8.785048 8.199107 2.135984
Ar 6.625692 5.855033 1.785810
Ar 4.234841 6.093321 1.376221
Ar 0.076053 2.098893 8.886069
10
Lattice="10.0 0 0 0 10.0 0 0 0 10.0" Properties=species:S:1:pos:R:3 pbc="T T T" Time=162
Ar 1.067650 3.779640 8.909687
Ar 6.559312 1.720576 4.300639
Ar 7.873481 3.137378 0.383636
Ar 1.464464 2.597893 9.455345
Ar 6.089269 6.553709 9.568794
Ar 9.763443 3.082802 1.469185
Ar 9.675745 2.632396 2.200674
Ar 5.117983 9.324197 6.534891
Ar 8.201602 5.698450 0.992281
Ar 0.053668 6.419208 6.253892
10
Lattice="10.0 0 0 0 10.0 0 0 0 10.0" Properties=species:S:1:pos:R:3 pbc="T T T" Time=163
Ar 2.763006 2.349495 1.224424
Ar 7.932380 8.174088 5.105018
Ar 0.678937 0.384345 2.449683
Ar 6.165305 4.437002 8.855298
Ar 9.241769 3.434494 0.344553
Ar 2.776238 0.315481 4.348828
Ar 0.566443 7.065686 2.265365
Ar 3.610283 2.793361 1.283969
Ar 2.168357 5.303580 0.608337
Ar 0.031284 0.739523 3.621716
10
Lattice="10.0 0 0 0 10.0 0 0 0 10.0" Properties=species:S:1:pos:R:3 pbc="T T T" Time=164
Ar 4.458308 0.919515 3.539084
Ar 9.305448 4.627601 5.909398
Ar 3.484382 7.631310 4.515724
Ar 0.866203 6.275946 8.255325
Ar 2.394268 0.315280 1.120311
Ar 5.786437 7.534785 7.250201
Ar 1.459746 1.512350 2.308336
Ar 2.102583 6.262525 6.033047
Ar 6.135113 4.908713 0.224394
Ar 0.008900 5.059838 0.989539
10
Lattice="10.0 0 0 0 10.0 0 0 0 10.0" Properties=species:S:1:pos:R:3 pbc="T T T" Time=165
Ar 6.158130 9.491903 5.854060
Ar 0.678516 1.081113 6.713777
Ar 6.289907 4.878230 6.581615
Ar 5.567102 8.114890 7.655352
Ar 5.546766 7.196066 1.896068
Ar 8.796638 4.754088 0.151576
Ar 2.353050 5.959014 2.351308
Ar 0.590364 9.729321 0.781808
Ar 0.101869 4.513847 9.840450
Ar 9.986432 9.380198 8.357511
10
Lattice="10.0 0 0 0 10.0 0 0 0 10.0" Properties=species:S:1:pos:R:3 pbc="T T T" Time=166
Ar 7.857953 8.064291 8.169038
Ar 2.051582 7.534625 7.518157
Ar 9.095434 2.125152 8.647503
Ar 0.267999 9.953834 7.055382
Ar 8.699275 4.076837 2.671811
Ar 1.806840 1.973392 3.052951
Ar 3.246341 0.405692 2.394294
Ar 9.078145 3.196114 5.530568
Ar 4.068626 4.118982 9.456507
Ar 9.963964 3.700559 5.725483
10
Lattice="10.0 0 0 0 10.0 0 0 0 10.0" Properties=species:S:1:pos:R:3 pbc="T T T" Time=167
Ar 9.557778 6.636682 0.484010
Ar 3.424651 3.988140 8.322533
Ar 1.900961 9.372074 0.713391
Ar 4.968894 1.792776 6.455417
Ar 1.851785 0.957609 3.447554
Ar 4.816861 9.192728 5.954370
Ar 4.139632 4.852370 2.437280
Ar 7.565927 6.662908 0.279332
Ar 8.035563 3.724082 9.072520
Ar 9.941494 8.020915 3.093455
10
Lattice="10.0 0 0 0 10.0 0 0 0 10.0" Properties=species:S:1:pos:R:3 pbc="T T T" Time=168
Ar 1.257603 5.209074 2.798983
Ar 4.797719 0.441654 9.126909
Ar 4.706488 6.618996 2.779281
Ar 9.669790 3.631717 5.855450
Ar 5.004293 7.838381 4.223296
Ar 7.826876 6.412071 8.855790
Ar 5.032929 9.299042 2.480264
Ar 6.054656 0.130242 5.028305
Ar 2.002500 3.329183 8.688533
Ar 9.918076 2.340733 0.461218
10
Lattice="10.0 0 0 0 10.0 0 0 0 10.0" Properties=species:S:1:pos:R:3 pbc="T T T" Time=169
Ar 2.957445 3.781464 5.113957
Ar 6.170788 6.895168 9.931286
Ar 7.512015 3.865918 4.845169
Ar 4.370687 5.470660 5.255484
Ar 8.156802 4.719153 4.999038
Ar 0.836892 3.631411 1.757211
Ar 5.926226 3.745715 2.523247
Ar 4.543368 3.597577 9.777277
Ar 5.969437 2.934283 8.304546
Ar 9.894657 6.660550 7.828983
10
Lattice="10.0 0 0 0 10.0 0 0 0 10.0" Properties=species:S:1:pos:R:3 pbc="T T T" Time=170
Ar 4.657286 2.353855 7.428930
Ar 7.543856 3.348683 0.735662
Ar 0.317538 1.112822 6.911040
Ar 9.071583 7.309603 4.655518
Ar 1.309314 1.599935 5.774803
Ar 3.846908 0.850751 4.658631
Ar 6.819523 8.192393 2.566224
Ar 3.032081 7.064915 4.526250
Ar 9.936375 2.539384 7.920558
Ar 9.871238 0.980367 5.196748
10
Lattice="10.0 0 0 0 10.0 0 0 0 10.0" Properties=species:S:1:pos:R:3 pbc="T T T" Time=171
Ar 6.357122 0.926239 9.743904
Ar 8.916925 9.802198 1.540039
Ar 3.123277 8.360010 8.976962
Ar 3.772484 9.148553 4.055552
Ar 4.461612 8.480433 6.550518
Ar 6.856923 8.070090 7.560051
Ar 7.712819 2.639071 2.609200
Ar 1.520787 0.532255 9.275230
Ar 3.903320 2.144481 7.536563
Ar 9.847819 5.300184 2.564514
10
Lattice="10.0 0 0 0 10.0 0 0 0 10.0" Properties=species:S:1:pos:R:3 pbc="T T T" Time=172
Ar 8.056958 9.498623 2.058878
Ar 0.289994 6.255713 2.344415
Ar 5.928981 5.607145 1.042962
Ar 8.473386 0.987504 3.455587
Ar 7.614013 5.360978 7.326192
Ar 9.866940 5.289430 0.461470
Ar 8.606115 7.085750 2.652175
Ar 0.009493 3.999596 4.024210
Ar 7.870256 1.749609 7.152592
Ar 9.824338 9.619975 9.932219
10
Lattice="10.0 0 0 0 10.0 0 0 0 10.0" Properties=species:S:1:pos:R:3 pbc="T T T" Time=173
Ar 9.756794 8.071007 4.373851
Ar 1.663062 2.709227 3.148792
Ar 8.734686 2.854277 3.108963
Ar 3.174287 2.826454 2.855620
Ar 0.766414 2.241523 8.101866
Ar 2.876960 2.508769 3.362889
Ar 9.499410 1.532429 2.695151
Ar 8.498197 7.466938 8.773190
Ar 1.837193 1.354739 6.768620
Ar 9.800856 3.939767 7.299925
10
Lattice="10.0 0 0 0 10.0 0 0 0 10.0" Properties=species:S:1:pos:R:3 pbc="T T T" Time=174
Ar 1.456626 6.643385 6.688817
Ar 3.036156 9.162736 3.953174
Ar 1.540390 0.101409 5.174965
Ar 7.875191 4.665415 2.255662
Ar 3.918815 9.122069 8.877540
Ar 5.886978 9.728102 6.264299
Ar 0.392683 5.979116 2.738132
Ar 6.986901 0.934278 3.522172
Ar 5.804129 0.959868 6.384649
Ar 9.777377 8.259559 4.667628
10
Lattice="10.0 0 0 0 10.0 0 0 0 10.0" Properties=species:S:1:pos:R:3 pbc="T T T" Time=175
Ar 3.156457 5.215762 9.003782
Ar 4.408926 5.616278 4.757533
Ar 4.346052 7.348612 7.240988
Ar 2.191677 6.093541 2.311702
Ar 7.071208 6.002615 9.653234
Ar 9.281743 7.358239 8.509732
Ar 1.285993 0.425731 2.781091
Ar 5.475606 4.401619 8.271153
Ar 9.771078 0.564986 6.000662
Ar 9.753891 2.579361 2.035327
10
Lattice="10.0 0 0 0 10.0 0 0 0 10.0" Properties=species:S:1:pos:R:3 pbc="T T T" Time=176
Ar 4.856288 3.788139 1.318748
Ar 5.781704 2.069815 5.561886
Ar 7.151708 4.595822 9.307018
Ar 6.508161 7.521666 2.367742
Ar 0.223601 2.883161 0.428930
Ar 2.676524 4.988137 0.755142
Ar 2.179305 4.872346 2.824049
Ar 3.964311 7.868961 3.020134
Ar 3.738012 0.170342 5.616699
Ar 9.730402 6.899163 9.403026
10
Lattice="10.0 0 0 0 10.0 0 0 0 10.0" Properties=species:S:1:pos:R:3 pbc="T T T" Time=177
Ar 6.556117 2.360516 3.633715
Ar 7.154482 8.523352 6.366237
Ar 9.957364 1.843034 1.373048
Ar 0.824646 8.949792 2.423782
Ar 3.375995 9.763708 1.204627
Ar 6.071307 2.618037 3.000551
Ar 3.072618 9.318959 2.867007
Ar 2.453017 1.336299 7.769112
Ar 7.704945 9.775698 5.232736
Ar 9.706912 1.218966 6.770724
10
Lattice="10.0 0 0 0 10.0 0 0 0 10.0" Properties=species:S:1:pos:R:3 pbc="T T T" Time=178
Ar 8.255948 0.932890 5.948684
Ar 8.527262 4.976889 7.170589
Ar 2.763020 9.090246 3.439077
Ar 5.141133 0.377917 2.479822
Ar 6.528388 6.644254 1.980325
Ar 9.466090 0.247939 5.245949
Ar 3.965928 3.765572 2.909977
Ar 0.941722 4.803637 2.518091
Ar 1.671877 9.381053 4.848773
Ar 9.683423 5.538769 4.138422
10
Lattice="10.0 0 0 0 10.0 0 0 0 10.0" Properties=species:S:1:pos:R:3 pbc="T T T" Time=179
Ar 9.932934 9.517400 8.233817
Ar 9.900028 1.430398 7.974967
Ar 5.568676 6.337458 5.505106
Ar 9.457613 1.806041 2.535861
Ar 9.680790 3.524812 2.755979
Ar 2.883716 7.865707 7.521181
Ar 4.859236 8.212174 2.952991
Ar 9.430427 8.270976 7.267070
Ar 5.638820 8.986435 4.464785
Ar 9.659933 9.858573 1.506120
10
Lattice="10.0 0 0 0 10.0 0 0 0 10.0" Properties=species:S:1:pos:R:3 pbc="T T T" Time=180
Ar 1.609849 8.101950 0.518993
Ar 1.272795 7.883908 8.779345
Ar 8.374352 3.584665 7.571107
Ar 3.774094 3.234165 2.591899
Ar 2.833192 0.405370 3.531633
Ar 6.301410 5.483436 9.796371
Ar 5.752544 2.658776 2.996005
Ar 7.919138 1.738311 2.016041
Ar 9.605747 8.591821 4.080823
Ar 9.636438 4.178380 8.873825
10
Lattice="10.0 0 0 0 10.0 0 0 0 10.0" Properties=species:S:1:pos:R:3 pbc="T T T" Time=181
Ar 3.286783 6.686526 2.804208
Ar 2.645561 4.337440 9.583720
Ar 1.180029 0.831869 9.637109
Ar 8.090568 4.662252 2.647936
Ar 5.985600 7.285972 4.307293
Ar 9.719105 3.101165 2.071563
Ar 6.645841 7.105367 3.038995
Ar 6.407829 5.205598 6.764975
Ar 3.572686 8.197221 3.696885
Ar 9.612943 8.498179 6.241527
10
Lattice="10.0 0 0 0 10.0 0 0 0 10.0" Properties=species:S:1:pos:R:3 pbc="T T T" Time=182
Ar 4.963725 5.271106 5.089461
Ar 4.018321 0.790968 0.388057
Ar 3.985690 8.079065 1.703094
Ar 2.407031 6.090345 2.703970
Ar 9.138007 4.166573 5.082953
Ar 3.136799 0.718894 4.346754
Ar 7.539147 1.551955 3.081990
Ar 4.896523 8.672884 1.513908
Ar 7.539624 7.802620 3.312946
Ar 9.589465 2.817986 3.609245
10
Lattice="10.0 0 0 0 10.0 0 0 0 10.0" Properties=species:S:1:pos:R:3 pbc="T T T" Time=183
Ar 6.640659 3.855652 7.374693
Ar 5.391080 7.244497 1.192394
Ar 6.791350 5.326261 3.769079
Ar 6.723490 7.518439 2.760006
Ar 2.290352 1.047192 5.858741
Ar 6.554497 8.336619 6.621944
Ar 8.432519 5.998527 3.124857
Ar 3.385217 2.140170 6.262841
Ar 1.506566 7.408054 2.929027
Ar 9.565987 7.137793 0.976964
10
Lattice="10.0 0 0 0 10.0 0 0 0 10.0" Properties=species:S:1:pos:R:3 pbc="T T T" Time=184
Ar 8.317592 2.440198 9.659926
Ar 6.763838 3.698028 1.996729
Ar 9.597118 2.573527 5.835041
Ar 1.039947 8.946533 2.816042
Ar 5.442693 7.927822 6.634540
Ar 9.972196 5.954344 8.897134
Ar 9.325888 0.445096 3.167723
Ar 1.873806 5.607383 1.011798
Ar 5.473509 7.013488 2.545109
Ar 9.542516 1.457592 8.344673
10
Lattice="10.0 0 0 0 10.0 0 0 0 10.0" Properties=species:S:1:pos:R:3 pbc="T T T" Time=185
Ar 9.994527 1.024743 1.945159
Ar 8.136586 0.151559 2.801052
Ar 2.402863 9.820778 7.901015
Ar 5.356408 0.374637 2.872085
Ar 8.594979 4.808397 7.410319
Ar 3.389894 3.572069 1.172324
Ar 0.219283 4.891669 3.210583
Ar 0.362448 9.074651 5.760774
Ar 9.440453 6.618923 2.161192
Ar 9.519045 5.777392 5.712377
10
Lattice="10.0 0 0 0 10.0 0 0 0 10.0" Properties=species:S:1:pos:R:3 pbc="T T T" Time=186
Ar 1.671452 9.609296 4.230401
Ar 9.509335 6.605089 3.605376
Ar 5.208607 7.068030 9.966987
Ar 9.672874 1.802737 2.928128
Ar 1.747266 1.688973 8.186099
Ar 6.807591 1.189795 3.447514
Ar 1.112674 9.338247 3.253444
Ar 8.851092 2.541918 0.509752
Ar 3.407398 6.224358 1.777274
Ar 9.495584 0.097183 3.080074
10
Lattice="10.0 0 0 0 10.0 0 0 0 10.0" Properties=species:S:1:pos:R:3 pbc="T T T" Time=187
Ar 3.348384 8.193852 6.515640
Ar 0.882077 3.058616 4.409704
Ar 8.014353 4.315283 2.032959
Ar 3.989339 3.230836 2.984171
Ar 4.899549 8.569543 8.961886
Ar 0.225289 8.807521 5.722703
Ar 2.006069 3.784815 3.296308
Ar 7.339735 6.009185 5.258729
Ar 7.374338 5.829801 1.393352
Ar 9.472126 4.416979 0.447765
10
Lattice="10.0 0 0 0 10.0 0 0 0 10.0" Properties=species:S:1:pos:R:3 pbc="T T T" Time=188
Ar 5.025391 6.778441 8.801004
Ar 2.254819 9.512143 5.214032
Ar 0.820099 1.562536 4.098930
Ar 8.305809 4.658986 3.040211
Ar 8.051831 5.450114 9.737674
Ar 3.642984 6.425247 7.997893
Ar 2.899429 8.231333 3.339053
Ar 5.828378 9.476454 0.007703
Ar 1.341278 5.435243 1.009431
Ar 9.448628 8.736743 7.815454
10
Lattice="10.0 0 0 0 10.0 0 0 0 10.0" Properties=species:S:1:pos:R:3 pbc="T T T" Time=189
Ar 6.702397 5.363030 1.086367
Ar 3.627531 5.965649 6.018389
Ar 3.625854 8.809753 6.164924
Ar 2.622292 6.087133 3.096249
Ar 1.204114 2.330685 0.513463
Ar 7.060678 4.042974 0.273083
Ar 3.792805 2.677874 3.381771
Ar 4.317020 2.943722 4.756678
Ar 5.308200 5.040722 0.625495
Ar 9.425138 3.056506 5.183135
10
Lattice="10.0 0 0 0 10.0 0 0 0 10.0" Properties=species:S:1:pos:R:3 pbc="T T T" Time=190
Ar 8.379461 3.947633 3.371763
Ar 5.000243 2.419158 6.822752
Ar 6.431608 6.056971 8.230917
Ar 6.938776 7.515279 3.152288
Ar 4.356397 9.211255 1.289251
Ar 0.478315 1.660685 2.548239
Ar 4.686184 7.124412 3.424484
Ar 2.805663 6.410992 9.505653
Ar 9.275123 4.646201 0.241559
Ar 9.401648 7.376269 2.550815
10
Lattice="10.0 0 0 0 10.0 0 0 0 10.0" Properties=species:S:1:pos:R:3 pbc="T T T" Time=191
Ar 0.056612 2.532328 5.657235
Ar 6.372955 8.872665 7.627115
Ar 9.237362 3.304190 0.296910
Ar 1.255258 8.943426 3.208326
Ar 7.508680 6.091826 2.065039
Ar 3.895984 9.278321 4.823350
Ar 5.579521 1.570928 3.467089
Ar 1.294347 9.878282 4.254737
Ar 3.241926 4.251664 9.857591
Ar 9.378158 1.696032 9.918496
10
Lattice="10.0 0 0 0 10.0 0 0 0 10.0" Properties=species:S:1:pos:R:3 pbc="T T T" Time=192
Ar 1.733762 1.117023 7.942708
Ar 7.745667 5.326173 8.431479
Ar 2.043115 0.551410 2.362903
Ar 5.571744 0.371574 3.264363
Ar 0.660963 2.972398 2.840827
Ar 7.313653 6.895957 7.098462
Ar 6.472851 6.017442 3.509696
Ar 9.783030 3.345572 9.003820
Ar 7.208730 3.857126 9.473622
Ar 9.354672 6.015795 7.286176
10
Lattice="10.0 0 0 0 10.0 0 0 0 10.0" Properties=species:S:1:pos:R:3 pbc="T T T" Time=193
Ar 3.410913 9.701719 0.228181
Ar 9.118379 1.779680 9.235843
Ar 4.848864 7.798691 4.428910
Ar 9.888225 1.799612 3.320278
Ar 3.813245 9.852970 3.616614
Ar 0.731324 4.513592 9.373575
Ar 7.366182 0.463957 3.552302
Ar 8.271717 6.812971 3.753026
Ar 1.175534 3.462588 9.089652
Ar 9.331191 0.335498 4.653841
10
Lattice="10.0 0 0 0 10.0 0 0 0 10.0" Properties=species:S:1:pos:R:3 pbc="T T T" Time=194
Ar 5.088064 8.286414 2.513654
Ar 0.491090 8.233196 0.040207
Ar 7.654613 5.045970 6.494917
Ar 4.204706 3.227650 3.376192
Ar 6.965527 6.733543 4.392402
Ar 4.148985 2.131240 1.648679
Ar 8.259512 4.910472 3.594908
Ar 6.760407 0.280369 8.502232
Ar 5.142327 3.068029 8.705699
Ar 9.307728 4.655202 2.021500
10
Lattice="10.0 0 0 0 10.0 0 0 0 10.0" Properties=species:S:1:pos:R:3 pbc="T T T" Time=195
Ar 6.765215 6.871109 4.799127
Ar 1.863798 4.686710 0.844570
Ar 0.460363 2.293245 8.560926
Ar 8.521193 4.655699 3.432097
Ar 0.117807 3.614120 5.168189
Ar 7.566575 9.749057 3.923828
Ar 9.152835 9.356987 3.637511
Ar 5.249097 3.747767 3.251438
Ar 9.109194 2.673304 8.321701
Ar 9.284268 8.974895 9.389172
10
Lattice="10.0 0 0 0 10.0 0 0 0 10.0" Properties=species:S:1:pos:R:3 pbc="T T T" Time=196
Ar 8.442365 5.455804 7.084599
Ar 3.236507 1.140223 1.648934
Ar 3.266114 9.540520 0.626937
Ar 2.837679 6.083757 3.488015
Ar 3.270084 0.494702 5.943977
Ar 0.984165 7.366865 6.198965
Ar 0.046148 3.803501 3.680131
Ar 3.737787 7.215164 8.000644
Ar 3.076060 2.278579 7.937701
Ar 9.260821 3.294584 6.756824
10
Lattice="10.0 0 0 0 10.0 0 0 0 10.0" Properties=species:S:1:pos:R:3 pbc="T T T" Time=197
Ar 0.119515 4.040499 9.370071
Ar 4.609216 7.593737 2.453297
Ar 6.072011 6.787753 2.692974
Ar 7.154165 7.511815 3.543931
Ar 6.422363 7.375283 6.719766
Ar 4.401695 4.984689 8.474112
Ar 0.939520 8.250000 3.722740
Ar 2.226476 0.682561 2.749849
Ar 7.042780 1.883895 7.553677
Ar 9.237375 7.614273 4.124475
10
Lattice="10.0 0 0 0 10.0 0 0 0 10.0" Properties=species:S:1:pos:R:3 pbc="T T T" Time=198
Ar 1.796662 2.625200 1.655545
Ar 5.981925 4.047273 3.257675
Ar 8.877908 4.034964 4.758998
Ar 1.470651 8.939874 3.599846
Ar 9.574642 4.255863 7.495554
Ar 7.819224 2.602513 0.749260
Ar 1.832893 2.696499 3.765349
Ar 0.715167 4.149958 7.499055
Ar 1.009500 1.489213 7.169653
Ar 9.213931 1.933956 1.492126
10
Lattice="10.0 0 0 0 10.0 0 0 0 10.0" Properties=species:S:1:pos:R:3 pbc="T T T" Time=199
Ar 3.473808 1.209900 3.941019
Ar 7.354584 0.500836 4.062044
Ar 1.683788 1.282105 6.824978
Ar 5.787194 0.367976 3.655810
Ar 2.726921 1.136443 8.271343
Ar 1.236753 0.220338 3.024407
Ar 2.726292 7.143007 3.807951
Ar 9.203857 7.617355 2.248261
Ar 4.976220 1.094531 6.785630
Ar 9.190470 6.253630 8.859787
10
Lattice="10.0 0 0 0 10.0 0 0 0 10.0" Properties=species:S:1:pos:R:3 pbc="T T T" Time=200
Ar 5.150958 9.794601 6.226481
Ar 8.727241 6.954399 4.866413
Ar 4.489668 8.529247 8.890957
Ar 0.103736 1.796077 3.711774
Ar 5.879095 8.017034 9.047132
Ar 4.654242 7.838181 5.299532
Ar 3.619692 1.589516 3.850566
Ar 7.692654 1.084746 6.997468
Ar 8.942940 0.699846 6.401607
Ar 9.167047 0.573283 6.227468
10
Lattice="10.0 0 0 0 10.0 0 0 0 10.0" Properties=species:S:1:pos:R:3 pbc="T T T" Time=201
Ar 6.828105 8.379305 8.511943
Ar 0.099968 3.407967 5.670800
Ar 7.295525 5.776391 0.956905
Ar 4.420214 3.224171 3.767719
Ar 9.031289 4.897621 9.822954
Ar 8.071727 5.456024 7.574656
Ar 4.513092 6.036024 3.893181
Ar 6.181450 4.552135 1.746674
Ar 2.909663 0.305161 6.017583
Ar 9.143625 4.892936 3.595150
10
Lattice="10.0 0 0 0 10.0 0 0 0 10.0" Properties=species:S:1:pos:R:3 pbc="T T T" Time=202
Ar 8.505254 6.964016 0.797407
Ar 1.472695 9.861536 6.475186
Ar 0.101269 3.023577 3.022842
Ar 8.736692 4.652265 3.823662
Ar 2.183595 1.778167 0.598790
Ar 1.489211 3.073859 9.849776
Ar 5.406493 0.482533 3.935796
Ar 4.670081 8.019579 6.495962
Ar 8.330650 5.156883 5.866664
Ar 7.666105 3.966129 0.729649
10
Lattice="10.0 0 0 0 10.0 0 0 0 10.0" Properties=species:S:1:pos:R:3 pbc="T T T" Time=203
Ar 0.182402 5.548728 3.082871
Ar 2.845423 6.315103 7.279574
Ar 2.907026 0.270787 5.088769
Ar 3.053170 6.080358 3.879605
Ar 5.335910 8.658709 1.374624
Ar 4.906693 0.691695 2.124893
Ar 6.299893 4.929044 3.978411
Ar 3.158693 1.487000 1.245263
Ar 3.751636 0.008605 5.715744
Ar 6.188586 3.039323 7.864147
10
Lattice="10.0 0 0 0 10.0 0 0 0 10.0" Properties=species:S:1:pos:R:3 pbc="T T T" Time=204
Ar 1.859550 4.133441 5.368335
Ar 4.218150 2.768670 8.083962
Ar 5.712787 7.517992 7.154694
Ar 7.369645 7.508453 3.935542
Ar 8.488252 5.539199 2.150488
Ar 8.324149 8.309582 4.399979
Ar 7.193293 9.375555 4.021026
Ar 1.647305 4.954422 5.994564
Ar 9.172620 4.860330 5.564835
Ar 4.711065 2.112516 4.998644
10
Lattice="10.0 0 0 0 10.0 0 0 0 10.0" Properties=species:S:1:pos:R:3 pbc="T T T" Time=205
Ar 3.536698 2.718154 7.653799
Ar 5.590878 9.222237 8.888350
Ar 8.518795 4.765121 9.220802
Ar 1.686120 8.936549 3.991478
Ar 1.640597 2.419681 2.926348
Ar 1.741613 5.927472 6.675073
Ar 8.086693 3.822065 4.063641
Ar 0.135906 8.421848 0.743859
Ar 4.593357 9.712131 5.413743
Ar 3.233545 1.185709 2.133142
10
Lattice="10.0 0 0 0 10.0 0 0 0 10.0" Properties=species:S:1:pos:R:3 pbc="T T T" Time=206
Ar 5.213694 1.303457 9.939714
Ar 6.963605 5.675804 9.692740
Ar 1.324803 2.012249 1.286911
Ar 6.002449 0.364492 4.047340
Ar 4.792942 9.300162 3.702207
Ar 5.159282 3.545436 8.950259
Ar 8.980035 8.268656 4.106239
Ar 8.624663 1.888683 5.492705
Ar 0.014089 4.563932 5.262651
Ar 1.756025 0.258902 9.267638
10
Lattice="10.0 0 0 0 10.0 0 0 0 10.0" Properties=species:S:1:pos:R:3 pbc="T T T" Time=207
Ar 6.890690 9.888761 2.225629
Ar 8.336333 2.129370 0.497129
Ar 4.130811 9.259377 3.353021
Ar 0.318776 1.792435 4.103203
Ar 7.945279 6.180649 4.478070
Ar 8.576951 1.163400 1.225445
Ar 9.873377 2.715247 4.148836
Ar 7.113421 5.355518 0.241549
Ar 5.434822 9.415734 5.111559
Ar 0.278512 9.332089 6.402131
10
Lattice="10.0 0 0 0 10.0 0 0 0 10.0" Properties=species:S:1:pos:R:3 pbc="T T T" Time=208
Ar 8.567687 8.474061 4.511545
Ar 9.709062 8.582938 1.301519
Ar 6.936818 6.506507 5.419131
Ar 4.635152 3.220420 4.159079
Ar 1.097568 3.061094 5.253918
Ar 1.994619 8.781367 3.500628
Ar 0.766719 7.161838 4.191434
Ar 5.602178 8.822353 4.990395
Ar 0.855555 4.267535 4.960467
Ar 8.801000 8.405275 3.536622
10
Lattice="10.0 0 0 0 10.0 0 0 0 10.0" Properties=species:S:1:pos:R:3 pbc="T T T" Time=209
Ar 0.244680 7.059357 6.797464
Ar 1.081744 5.036693 2.105767
Ar 9.742819 3.753636 7.485235
Ar 8.950901 4.649703 4.215020
Ar 4.249857 9.941538 6.029767
Ar 5.412339 6.399150 5.775950
Ar 1.660688 1.607132 4.233968
Ar 4.090936 2.289188 9.739240
Ar 6.276294 9.119338 4.809383
Ar 7.323488 7.478460 0.671113
10
Lattice="10.0 0 0 0 10.0 0 0 0 10.0" Properties=species:S:1:pos:R:3 pbc="T T T" Time=210
Ar 1.922180 5.644507 9.081259
Ar 2.454428 1.490449 2.910010
Ar 2.548819 1.000761 9.551340
Ar 3.266650 6.078986 4.270961
Ar 7.402191 6.821757 6.805672
Ar 8.830065 4.016942 8.051268
Ar 2.554657 6.052414 4.276506
Ar 2.579691 5.756025 4.488085
Ar 1.696987 3.971365 4.658245
Ar 5.845462 6.551798 7.807731
10
Lattice="10.0 0 0 0 10.0 0 0 0 10.0" Properties=species:S:1:pos:R:3 pbc="T T T" Time=211
Ar 3.599680 4.229657 1.365053
Ar 3.827112 7.944204 3.714252
Ar 5.354819 8.247885 1.617445
Ar 7.582399 7.508269 4.326901
Ar 0.554522 3.701977 7.581578
Ar 2.247792 1.634733 0.326586
Ar 3.448626 0.497696 4.319044
Ar 1.068446 9.222862 9.236930
Ar 7.117684 8.823393 4.507105
Ar 4.367436 5.625135 4.944349
10
Lattice="10.0 0 0 0 10.0 0 0 0 10.0" Properties=species:S:1:pos:R:3 pbc="T T T" Time=212
Ar 5.277181 2.814807 3.648848
Ar 5.199797 4.397959 4.518493
Ar 8.160819 5.495010 3.683550
Ar 1.451417 8.886586 4.410748
Ar 3.706877 0.582201 8.357468
Ar 5.665518 9.252523 2.601904
Ar 5.713345 8.757932 5.108072
Ar 8.633193 8.925735 3.211376
Ar 2.538368 3.675395 4.355968
Ar 2.889386 4.698469 2.080982
10
Lattice="10.0 0 0 0 10.0 0 0 0 10.0" Properties=species:S:1:pos:R:3 pbc="T T T" Time=213
Ar 6.954682 1.399958 5.932643
Ar 6.572479 0.851714 5.322736
Ar 0.966821 2.742134 5.749652
Ar 5.320489 0.264751 4.494574
Ar 6.859232 7.462425 9.133359
Ar 9.083245 6.870313 4.877223
Ar 7.978065 7.018170 5.897101
Ar 6.197940 8.628607 7.185822
Ar 7.958999 8.527551 4.204852
Ar 1.411336 3.771800 9.217616
10
Lattice="10.0 0 0 0 10.0 0 0 0 10.0" Properties=species:S:1:pos:R:3 pbc="T T T" Time=214
Ar 8.632185 9.985077 8.216421
Ar 7.945162 7.305499 6.126996
Ar 3.772823 9.989259 7.815754
Ar 9.189563 1.642916 4.578400
Ar 0.011586 4.342650 9.909250
Ar 2.500971 4.488105 7.152538
Ar 0.242784 5.278408 6.686133
Ar 3.762687 8.331479 1.160267
Ar 3.379626 3.379705 4.053740
Ar 9.933287 2.845134 6.354247
10
Lattice="10.0 0 0 0 10.0 0 0 0 10.0" Properties=species:S:1:pos:R:3 pbc="T T T" Time=215
Ar 0.304289 8.562448 0.491579
Ar 9.323305 3.767065 6.939916
Ar 6.578825 7.236383 9.881855
Ar 3.058574 3.021053 4.662185
Ar 3.163942 1.222872 0.685145
Ar 5.918785 2.105875 9.427782
Ar 2.507423 3.538650 7.475245
Ar 1.327431 8.034354 5.134710
Ar 8.800248 8.231873 3.902617
Ar 8.455237 1.918467 3.490878
10
Lattice="10.0 0 0 0 10.0 0 0 0 10.0" Properties=species:S:1:pos:R:3 pbc="T T T" Time=216
Ar 1.976392 7.139820 2.766738
Ar 0.701448 0.228631 7.752836
Ar 9.384827 4.483508 1.947957
Ar 6.927582 4.399185 4.745964
Ar 6.316298 8.103093 1.461042
Ar 9.336603 9.723644 1.703028
Ar 4.772059 1.798897 8.264356
Ar 8.892175 7.737229 9.109154
Ar 4.220870 3.084040 3.751494
Ar 6.977189 0.991800 0.627513
10
Lattice="10.0 0 0 0 10.0 0 0 0 10.0" Properties=species:S:1:pos:R:3 pbc="T T T" Time=217
Ar 3.648496 5.717192 5.041896
Ar 2.079590 6.690197 8.565756
Ar 2.190829 1.730632 4.014058
Ar 0.796591 5.777317 4.829741
Ar 9.468653 4.983315 2.236939
Ar 2.754423 7.341414 3.978273
Ar 7.036696 0.059145 9.053468
Ar 6.456920 7.440103 3.083598
Ar 9.641491 7.936207 3.600370
Ar 5.499140 0.065133 7.764149
10
Lattice="10.0 0 0 0 10.0 0 0 0 10.0" Properties=species:S:1:pos:R:3 pbc="T T T" Time=218
Ar 5.320600 4.294564 7.317055
Ar 3.457732 3.151764 9.378676
Ar 4.996831 8.977757 6.080160
Ar 4.665600 7.155449 4.913519
Ar 2.621008 1.863535 3.012837
Ar 6.172244 4.959184 6.253519
Ar 9.301332 8.319392 9.842580
Ar 4.021665 7.142977 7.058042
Ar 5.062112 2.788374 3.449246
Ar 4.021091 9.138467 4.900784
10
Lattice="10.0 0 0 0 10.0 0 0 0 10.0" Properties=species:S:1:pos:R:3 pbc="T T T" Time=219
Ar 6.992710 2.871926 9.592219
Ar 4.835875 9.613330 0.191596
Ar 7.802833 6.224881 8.146261
Ar 8.534607 8.533578 4.997299
Ar 5.773362 8.743755 3.788733
Ar 9.590062 2.576963 8.528759
Ar 1.565982 6.579640 0.631703
Ar 1.586410 6.845850 1.032486
Ar 0.482731 7.640543 3.298121
Ar 2.543028 8.211802 2.037408
10
Lattice="10.0 0 0 0 10.0 0 0 0 10.0" Properties=species:S:1:pos:R:3 pbc="T T T" Time=220
Ar 8.664760 1.449241 1.867459
Ar 6.214016 6.074896 1.004517
Ar 0.608903 3.472009 0.212441
Ar 2.403619 9.911688 5.081065
Ar 8.925713 5.623974 4.564629
Ar 3.007943 0.194790 0.803923
Ar 3.830632 4.839888 1.420826
Ar 9.151149 6.548719 5.006942
Ar 5.903352 2.492713 3.146996
Ar 1.064898 7.285160 9.173955
10
Lattice="10.0 0 0 0 10.0 0 0 0 10.0" Properties=species:S:1:pos:R:3 pbc="T T T" Time=221
Ar 0.336808 0.026556 4.142700
Ar 7.592158 2.536463 1.817437
Ar 3.414973 0.719136 2.278620
Ar 6.272630 1.289798 5.164833
Ar 2.078064 2.504192 5.340524
Ar 6.425826 7.812615 3.079086
Ar 8.795995 8.295514 5.197065
Ar 4.015163 1.056188 5.994264
Ar 1.323971 7.344883 2.995875
Ar 9.586784 6.358539 6.310515
10
Lattice="10.0 0 0 0 10.0 0 0 0 10.0" Properties=species:S:1:pos:R:3 pbc="T T T" Time=222
Ar 2.008857 8.603870 6.417942
Ar 8.970302 8.998030 2.630357
Ar 6.221043 7.966265 4.344800
Ar 0.141641 2.667908 5.248601
Ar 5.230597 9.385159 6.116778
Ar 9.843708 5.430441 5.354249
Ar 3.761356 1.751140 8.973303
Ar 8.878995 5.562909 6.981230
Ar 6.744589 2.197052 2.844755
Ar 8.108670 5.431917 3.447074
10
Lattice="10.0 0 0 0 10.0 0 0 0 10.0" Properties=species:S:1:pos:R:3 pbc="T T T" Time=223
Ar 3.680907 7.181186 8.693181
Ar 0.348446 5.459598 3.443276
Ar 9.027112 5.213393 6.410978
Ar 4.010656 4.046019 5.332368
Ar 8.383127 6.266128 6.893030
Ar 3.261591 3.048267 7.629412
Ar 8.726713 5.206769 2.749542
Ar 3.742825 0.069628 7.968198
Ar 2.165207 7.049221 2.693634
Ar 6.630558 4.505291 0.583636
10
Lattice="10.0 0 0 0 10.0 0 0 0 10.0" Properties=species:S:1:pos:R:3 pbc="T T T" Time=224
Ar 5.352957 5.758503 0.968421
Ar 1.726590 1.921166 4.256195
Ar 1.833183 2.460519 8.477154
Ar 7.879672 5.424128 5.416134
Ar 1.535656 3.147100 7.669286
Ar 6.679488 0.666092 9.904554
Ar 3.692071 8.662397 6.525780
Ar 8.606642 4.576349 8.955189
Ar 7.585826 1.901389 2.542513
Ar 5.152443 3.578664 7.720196
10
Lattice="10.0 0 0 0 10.0 0 0 0 10.0" Properties=species:S:1:pos:R:3 pbc="T T T" Time=225
Ar 7.025006 4.335819 3.243662
Ar 3.104768 8.382737 5.069130
Ar 4.639356 9.707477 0.543255
Ar 1.748689 6.802237 5.499899
Ar 4.688083 0.028239 8.445618
Ar 0.097384 8.283917 2.179699
Ar 8.657392 2.118020 0.302003
Ar 3.470460 9.083070 9.942180
Ar 3.006447 6.753560 2.391391
Ar 3.674328 2.652038 4.856755
10
Lattice="10.0 0 0 0 10.0 0 0 0 10.0" Properties=species:S:1:pos:R:3 pbc="T T T" Time=226
Ar 8.697055 2.913135 5.518902
Ar 4.482946 4.844308 5.882064
Ar 7.445489 6.954528 2.609246
Ar 5.617706 8.180347 5.583663
Ar 7.840549 6.909286 9.222060
Ar 3.515281 5.901742 4.454844
Ar 3.622714 5.573643 4.078226
Ar 8.334277 3.589791 0.929172
Ar 8.427068 1.605731 2.240269
Ar 2.196214 1.725411 1.993314
10
Lattice="10.0 0 0 0 10.0 0 0 0 10.0" Properties=species:S:1:pos:R:3 pbc="T T T" Time=227
Ar 0.369105 1.490451 7.794142
Ar 5.861132 1.305888 6.694997
Ar 0.251732 4.201636 4.675305
Ar 9.486715 9.558448 5.667429
Ar 0.993023 3.790339 9.998483
Ar 6.933176 3.519567 6.729988
Ar 8.588036 9.029266 7.854449
Ar 3.197978 8.096449 1.916114
Ar 3.847689 6.457901 2.089147
Ar 0.718099 0.798784 9.129873
10
Lattice="10.0 0 0 0 10.0 0 0 0 10.0" Properties=species:S:1:pos:R:3 pbc="T T T" Time=228
Ar 2.041154 0.067767 0.069383
Ar 7.239330 7.767455 7.507951
Ar 3.057975 1.448745 6.741365
Ar 3.355725 0.936550 5.751197
Ar 4.145496 0.671393 0.774905
Ar 6.540459 2.235156 7.307678
Ar 7.363956 1.387136 3.328104
Ar 8.061679 2.603111 2.903053
Ar 9.268311 1.310067 1.938028
Ar 9.239984 9.872157 6.266431
10
Lattice="10.0 0 0 0 10.0 0 0 0 10.0" Properties=species:S:1:pos:R:3 pbc="T T T" Time=229
Ar 3.713183 8.645128 2.344540
Ar 8.617526 4.229019 8.320906
Ar 5.864218 8.695853 8.807424
Ar 7.224736 2.314652 5.834959
Ar 7.297970 7.552447 1.551327
Ar 6.147745 0.950749 7.885367
Ar 6.139874 3.745005 8.801764
Ar 2.925364 7.109811 3.889988
Ar 4.688948 6.162194 1.786912
Ar 7.761893 8.945487 3.403075
10
Lattice="10.0 0 0 0 10.0 0 0 0 10.0" Properties=species:S:1:pos:R:3 pbc="T T T" Time=230
Ar 5.385205 7.222486 4.619695
Ar 9.995722 0.690582 9.133861
Ar 8.670426 5.943021 0.873599
Ar 1.093782 3.692695 5.918605
Ar 0.450449 4.433504 2.327752
Ar 5.755030 9.666343 8.463058
Ar 4.915724 6.102763 4.275464
Ar 7.789103 1.616632 4.876893
Ar 0.109600 1.014310 1.635785
Ar 6.283802 8.018816 0.539719
10
Lattice="10.0 0 0 0 10.0 0 0 0 10.0" Properties=species:S:1:pos:R:3 pbc="T T T" Time=231
Ar 7.057228 5.799851 6.894846
Ar 1.373921 7.152145 9.946815
Ar 1.476633 3.190185 2.939774
Ar 4.962829 5.070738 6.002249
Ar 3.602930 1.314557 3.104172
Ar 5.362315 8.381938 9.040748
Ar 3.691571 8.460523 9.749166
Ar 2.652838 6.123449 5.863803
Ar 5.530252 5.866424 1.484657
Ar 4.805712 7.092149 7.676367
10
Lattice="10.0 0 0 0 10.0 0 0 0 10.0" Properties=species:S:1:pos:R:3 pbc="T T T" Time=232
Ar 8.729340 4.377427 9.170061
Ar 2.752119 3.613708 0.759766
Ar 4.282840 0.437350 5.005949
Ar 8.831876 6.448782 6.085894
Ar 6.755411 8.195610 3.880594
Ar 4.969599 7.097535 9.618436
Ar 2.467329 0.818071 5.222804
Ar 7.516573 0.630266 6.850714
Ar 0.950904 0.718537 1.333532
Ar 3.327622 6.165481 4.813016
10
Lattice="10.0 0 0 0 10.0 0 0 0 10.0" Properties=species:S:1:pos:R:3 pbc="T T T" Time=233
Ar 0.401459 2.955004 1.445278
Ar 4.130316 0.075270 1.572717
Ar 7.089045 7.684516 7.072124
Ar 2.700921 7.826820 6.169535
Ar 9.907894 5.076661 4.657015
Ar 4.576921 5.813144 0.196125
Ar 1.243056 3.175624 0.696456
Ar 2.380304 5.137084 7.837623
Ar 6.371556 5.570650 1.182408
Ar 1.849526 5.238801 1.949652
10
Lattice="10.0 0 0 0 10.0 0 0 0 10.0" Properties=species:S:1:pos:R:3 pbc="T T T" Time=234
Ar 2.073577 1.532580 3.720495
Ar 5.508513 6.536832 2.385669
Ar 9.895278 4.931677 9.138295
Ar 6.569967 9.204858 6.253175
Ar 3.060377 1.957713 5.433436
Ar 4.184243 4.528753 0.773814
Ar 0.018756 5.533182 6.170111
Ar 7.244035 9.643902 8.824533
Ar 1.792209 0.422762 1.031284
Ar 0.371429 4.312122 9.086288
10
Lattice="10.0 0 0 0 10.0 0 0 0 10.0" Properties=species:S:1:pos:R:3 pbc="T T T" Time=235
Ar 3.745610 0.110132 5.995787
Ar 6.886709 2.998395 3.198620
Ar 2.701511 2.178837 1.204466
Ar 0.439013 0.582897 6.336816
Ar 6.212859 8.838764 6.209858
Ar 3.791554 3.244365 1.351497
Ar 8.794538 7.890759 1.643690
Ar 2.107766 4.150720 9.811442
Ar 7.212874 5.274873 0.880167
Ar 8.893335 3.385447 6.222927
10
Lattice="10.0 0 0 0 10.0 0 0 0 10.0" Properties=species:S:1:pos:R:3 pbc="T T T" Time=236
Ar 5.417635 8.687682 8.271066
Ar 8.264907 9.459958 4.011572
Ar 5.569716 9.345362 3.263869
Ar 4.308058 1.960935 6.420454
Ar 9.365350 5.719819 6.986294
Ar 3.398864 1.959975 1.929178
Ar 7.570321 0.248337 7.117267
Ar 6.971498 8.657538 0.798354
Ar 2.633539 0.126983 0.729048
Ar 7.353269 2.539407 3.366335
10
Lattice="10.0 0 0 0 10.0 0 0 0 10.0" Properties=species:S:1:pos:R:3 pbc="T T T" Time=237
Ar 7.089659 7.265232 0.546344
Ar 9.643104 5.921521 4.824524
Ar 8.437848 6.511813 5.323265
Ar 8.177103 3.338973 6.504093
Ar 2.517842 2.600874 7.762730
Ar 3.006249 0.675656 2.506872
Ar 6.346104 2.605915 2.590844
Ar 1.835225 3.164361 1.785260
Ar 8.054204 4.979093 0.577929
Ar 5.813203 1.693368 0.509743
10
Lattice="10.0 0 0 0 10.0 0 0 0 10.0" Properties=species:S:1:pos:R:3 pbc="T T T" Time=238
Ar 8.761681 5.842781 2.821622
Ar 1.021304 2.383083 5.637477
Ar 1.305978 3.678263 7.382662
Ar 2.046148 4.717011 6.587731
Ar 5.670334 9.481928 8.539166
Ar 2.613637 9.391341 3.084570
Ar 5.121888 4.963494 8.064421
Ar 6.698954 7.671183 2.772166
Ar 3.474866 9.831198 0.426807
Ar 4.273138 0.847330 7.653151
10
Lattice="10.0 0 0 0 10.0 0 0 0 10.0" Properties=species:S:1:pos:R:3 pbc="T T T" Time=239
Ar 0.433701 4.420333 5.096900
Ar 2.399630 8.844584 6.450377
Ar 4.173982 0.844775 9.442110
Ar 5.915192 6.095048 6.671370
Ar 8.822826 6.362982 9.315601
Ar 2.221024 8.107025 3.662267
Ar 3.897673 7.321075 3.538004
Ar 1.562682 2.178007 3.759072
Ar 8.895530 4.683300 0.275684
Ar 2.733071 0.001290 4.796553
10
Lattice="10.0 0 0 0 10.0 0 0 0 10.0" Properties=species:S:1:pos:R:3 pbc="T T T" Time=240
Ar 2.105723 2.997885 7.372178
Ar 3.777953 5.306077 7.263269
Ar 7.041931 8.011213 1.501627
Ar 9.784294 7.473167 6.754949
Ar 1.975327 3.244029 0.092041
Ar 1.828411 6.822709 4.239967
Ar 2.673459 9.678656 9.011588
Ar 6.426409 6.684832 4.745978
Ar 4.316193 9.535402 0.124562
Ar 1.192997 9.155256 1.939949
10
Lattice="10.0 0 0 0 10.0 0 0 0 10.0" Properties=species:S:1:pos:R:3 pbc="T T T" Time=241
Ar 3.777745 1.575438 9.647457
Ar 5.156274 1.767562 8.076175
Ar 9.909880 5.177652 3.561144
Ar 3.653395 8.851285 6.838528
Ar 5.127827 0.125095 0.868470
Ar 1.435769 5.538399 4.817663
Ar 1.449273 2.036224 4.485168
Ar 1.290135 1.191658 5.732882
Ar 9.736857 4.387484 9.973451
Ar 9.652928 8.309237 9.083338
10
Lattice="10.0 0 0 0 10.0 0 0 0 10.0" Properties=species:S:1:pos:R:3 pbc="T T T" Time=242
Ar 5.449765 0.152989 1.922733
Ar 6.534596 8.229049 8.889081
Ar 2.777829 2.344091 5.620661
Ar 7.522496 0.229404 6.922107
Ar 8.280326 7.006162 1.644900
Ar 1.043128 4.254088 5.395359
Ar 0.225071 4.393793 9.958738
Ar 6.153861 5.698483 6.719787
Ar 5.157537 9.239565 9.822350
Ar 8.112859 7.463218 6.226728
10
Lattice="10.0 0 0 0 10.0 0 0 0 10.0" Properties=species:S:1:pos:R:3 pbc="T T T" Time=243
Ar 7.121774 8.730543 4.198016
Ar 7.912926 4.690537 9.701977
Ar 5.645765 9.510527 7.680167
Ar 1.391597 1.607521 7.005686
Ar 1.432830 3.887225 2.421335
Ar 0.650500 2.969781 5.973066
Ar 9.000881 6.751423 5.432217
Ar 1.017576 0.205248 7.706781
Ar 0.578217 4.091645 9.671249
Ar 6.572789 6.617199 3.370117
10
Lattice="10.0 0 0 0 10.0 0 0 0 10.0" Properties=species:S:1:pos:R:3 pbc="T T T" Time=244
Ar 8.793783 7.308101 6.473306
Ar 9.291272 1.152013 0.514864
Ar 8.513702 6.676960 9.739673
Ar 5.260699 2.985641 7.089264
Ar 4.585333 0.768287 3.197770
Ar 0.257870 1.685476 6.550772
Ar 7.776691 9.109052 0.905697
Ar 5.881289 4.712011 8.693775
Ar 5.998880 8.943735 9.520152
Ar 5.032722 5.771180 0.513505
10
Lattice="10.0 0 0 0 10.0 0 0 0 10.0" Properties=species:S:1:pos:R:3 pbc="T T T" Time=245
Ar 0.465792 5.885664 8.748597
Ar 0.669615 7.613490 1.327751
Ar 1.381640 3.843394 1.799179
Ar 9.129829 4.363805 7.172826
Ar 7.737837 7.649350 3.974206
Ar 9.865228 0.401193 7.128462
Ar 6.552502 1.466681 6.379177
Ar 0.744984 9.218708 9.680803
Ar 1.419545 3.795824 9.369054
Ar 3.492653 4.925155 7.656891
10
Lattice="10.0 0 0 0 10.0 0 0 0 10.0" Properties=species:S:1:pos:R:3 pbc="T T T" Time=246
Ar 2.137802 4.463228 1.023887
Ar 2.047960 4.074970 2.140637
Ar 4.249579 1.009826 3.858686
Ar 2.998959 5.741966 7.256385
Ar 0.890341 4.530412 4.750643
Ar 9.472586 9.116909 7.706152
Ar 5.328317 3.824309 1.852664
Ar 5.608683 3.725405 0.667827
Ar 6.840203 8.647914 9.217951
Ar 1.952581 4.079133 4.800283
10
Lattice="10.0 0 0 0 10.0 0 0 0 10.0" Properties=species:S:1:pos:R:3 pbc="T T T" Time=247
Ar 3.809811 3.040797 3.299177
Ar 3.426305 0.536446 2.953529
Ar 7.117518 8.176258 5.918197
Ar 6.868086 7.120125 7.339941
Ar 4.042845 1.411475 5.527079
Ar 9.079944 7.832626 8.283841
Ar 4.104132 6.181937 7.326150
Ar 0.472382 8.232106 1.654847
Ar 2.260863 3.499997 9.066847
Ar 0.412510 3.233112 1.943673
10
Lattice="10.0 0 0 0 10.0 0 0 0 10.0" Properties=species:S:1:pos:R:3 pbc="T T T" Time=248
Ar 5.481835 1.618434 5.574275
Ar 4.804634 6.997854 3.766610
Ar 9.985457 5.342689 7.977708
Ar 0.737214 8.498284 7.423498
Ar 7.195220 8.292591 6.303510
Ar 8.687303 6.548344 8.861529
Ar 2.879894 8.539584 2.799865
Ar 5.336136 2.738788 2.641639
Ar 7.681522 8.352081 8.915742
Ar 8.872566 2.387037 9.087072
10
Lattice="10.0 0 0 0 10.0 0 0 0 10.0" Properties=species:S:1:pos:R:3 pbc="T T T" Time=249
Ar 7.153859 0.196075 7.849371
Ar 6.182963 3.459259 4.579689
Ar 2.853401 2.509143 0.037189
Ar 4.606334 9.876420 7.507085
Ar 0.347597 5.173708 7.079945
Ar 8.294666 5.264062 9.439220
Ar 1.655655 0.897232 8.273579
Ar 0.199890 7.245469 3.628431
Ar 3.102181 3.204165 8.764638
Ar 7.332621 1.540961 6.230471
10
Lattice="10.0 0 0 0 10.0 0 0 0 10.0" Properties=species:S:1:pos:R:3 pbc="T T T" Time=250
Ar 8.825883 8.773716 0.124468
Ar 7.561293 9.920662 5.392768
Ar 5.721359 9.675585 2.096660
Ar 8.475455 1.254557 7.590670
Ar 3.499972 2.054824 7.856377
Ar 7.902022 3.979779 0.016919
Ar 0.431413 3.254880 3.747293
Ar 5.063644 1.752152 4.615223
Ar 8.522833 8.056261 8.613536
Ar 5.792676 0.694885 3.373871
10
Lattice="10.0 0 0 0 10.0 0 0 0 10.0" Properties=species:S:1:pos:R:3 pbc="T T T" Time=251
Ar 0.497909 7.351349 2.399576
Ar 8.939623 6.382067 6.205846
Ar 8.589295 6.841968 4.156245
Ar 2.344574 2.632693 7.674255
Ar 6.652348 8.935940 8.632809
Ar 7.509379 2.695495 0.594619
Ar 9.207169 5.612526 9.221005
Ar 9.927398 6.258834 5.602014
Ar 3.943509 2.908421 8.462324
Ar 4.252734 9.848816 0.517262
10
Lattice="10.0 0 0 0 10.0 0 0 0 10.0" Properties=species:S:1:pos:R:3 pbc="T T T" Time=252
Ar 2.169945 5.929005 4.674731
Ar 0.317954 2.843469 7.018924
Ar 1.457228 4.008307 6.215776
Ar 6.213694 4.010831 7.757842
Ar 9.804723 5.817057 9.409240
Ar 7.116735 1.411212 1.172319
Ar 7.982925 7.970171 4.694716
Ar 4.791136 0.765540 6.588832
Ar 9.364174 7.760557 8.311064
Ar 2.712809 9.002767 7.660678
10
Lattice="10.0 0 0 0 10.0 0 0 0 10.0" Properties=species:S:1:pos:R:3 pbc="T T T" Time=253
Ar 3.841983 4.506662 6.949884
Ar 1.696148 9.304887 7.832097
Ar 4.325147 1.174653 8.275287
Ar 0.082781 5.388963 7.841412
Ar 2.957099 2.698173 0.185672
Ar 6.724091 0.126929 1.750019
Ar 6.758682 0.327817 0.168429
Ar 9.655022 5.272224 7.575577
Ar 4.784872 2.612698 8.159819
Ar 1.172883 8.156719 4.804094
10
Lattice="10.0 0 0 0 10.0 0 0 0 10.0" Properties=species:S:1:pos:R:3 pbc="T T T" Time=254
Ar 5.514022 3.084321 9.225034
Ar 3.074320 5.766282 8.645285
Ar 7.193088 8.341018 0.334784
Ar 3.951869 6.767095 7.924983
Ar 6.109477 9.579283 0.962107
Ar 6.331447 8.842646 2.327719
Ar 5.534438 2.685462 5.642141
Ar 4.518908 9.778909 8.562321
Ar 0.205568 7.464846 8.008572
Ar 9.632957 7.310669 1.947511
10
Lattice="10.0 0 0 0 10.0 0 0 0 10.0" Properties=species:S:1:pos:R:3 pbc="T T T" Time=255
Ar 7.186060 1.661983 1.500183
Ar 4.452492 2.227677 9.458474
Ar 0.060996 5.507279 2.394288
Ar 6.948732 2.449044 5.037299
Ar 9.261852 6.460394 1.738545
Ar 5.938802 7.558353 2.905499
Ar 4.310197 5.043118 1.115774
Ar 0.255019 9.981777 2.520319
Ar 5.626300 2.317095 7.857316
Ar 8.093031 6.464620 9.090928
10
Lattice="10.0 0 0 0 10.0 0 0 0 10.0" Properties=species:S:1:pos:R:3 pbc="T T T" Time=256
Ar 8.858097 0.239647 3.775331
Ar 5.830601 8.688999 0.271715
Ar 2.928933 2.673508 4.453769
Ar 9.945658 8.131065 2.149562
Ar 2.414189 3.341577 2.514922
Ar 5.546165 6.274019 3.483365
Ar 3.085955 7.400773 6.589407
Ar 5.991129 0.184645 6.478316
Ar 1.047032 7.169344 7.706060
Ar 6.553106 5.618569 6.234345
10
Lattice="10.0 0 0 0 10.0 0 0 0 10.0" Properties=species:S:1:pos:R:3 pbc="T T T" Time=257
Ar 0.530135 8.817310 6.050480
Ar 7.208698 5.150320 1.084971
Ar 5.796963 9.839626 6.513326
Ar 2.942585 3.813086 9.261825
Ar 5.566434 0.222870 3.291224
Ar 5.153529 4.989686 4.061231
Ar 1.861714 9.758429 2.063040
Ar 1.727240 0.387514 0.436313
Ar 6.467775 2.021594 7.554789
Ar 5.013180 4.772520 3.377760
10
Lattice="10.0 0 0 0 10.0 0 0 0 10.0" Properties=species:S:1:pos:R:3 pbc="T T T" Time=258
Ar 2.202173 7.394974 8.325629
Ar 8.586794 1.611640 1.898227
Ar 8.664996 7.005740 8.572895
Ar 5.939512 9.495107 6.374087
Ar 8.718675 7.104168 4.067514
Ar 4.760892 3.705353 4.639096
Ar 0.637477 2.116085 7.536670
Ar 7.463350 0.590382 4.394311
Ar 1.888513 6.873844 7.403522
Ar 3.473255 3.926469 0.521177
10
Lattice="10.0 0 0 0 10.0 0 0 0 10.0" Properties=species:S:1:pos:R:3 pbc="T T T" Time=259
Ar 3.874210 5.972638 0.600778
Ar 9.964892 8.072961 2.711482
Ar 1.533028 4.171850 0.632463
Ar 8.936439 5.177127 3.486349
Ar 1.870917 3.985465 4.843804
Ar 4.317984 2.343234 4.972151
Ar 9.413244 4.473725 3.010341
Ar 3.199457 0.793267 8.352267
Ar 7.309251 1.726096 7.252256
Ar 1.983600 3.158205 7.909404
10
Lattice="10.0 0 0 0 10.0 0 0 0 10.0" Properties=species:S:1:pos:R:3 pbc="T T T" Time=260
Ar 5.546214 4.550245 2.875827
Ar 1.342990 4.534283 3.524736
Ar 4.401059 1.337961 2.692031
Ar 1.933365 0.859147 0.598613
Ar 5.023159 0.866763 5.620093
Ar 3.875075 0.981115 5.305206
Ar 8.189011 6.831365 8.484013
Ar 8.935564 0.996152 2.310222
Ar 2.730024 6.578405 7.101090
Ar 0.493946 2.389941 5.297632
10
Lattice="10.0 0 0 0 10.0 0 0 0 10.0" Properties=species:S:1:pos:R:3 pbc="T T T" Time=261
Ar 7.218218 3.127853 5.150876
Ar 2.721088 0.995605 4.337990
Ar 7.269090 8.504071 4.751600
Ar 4.932187 6.538368 7.708984
Ar 8.175401 7.748060 6.396383
Ar 3.432168 9.618995 5.638260
Ar 6.962880 9.191803 3.959577
Ar 4.671672 1.199035 6.268178
Ar 8.150798 1.430715 6.949925
Ar 9.004290 1.621679 2.685859
10
Lattice="10.0 0 0 0 10.0 0 0 0 10.0" Properties=species:S:1:pos:R:3 pbc="T T T" Time=262
Ar 8.890223 1.705462 7.425925
Ar 4.099187 7.456929 5.151243
Ar 0.137121 5.670181 6.811165
Ar 7.931008 2.217590 4.819354
Ar 1.327852 4.629337 7.172730
Ar 2.989052 8.256896 5.971260
Ar 5.736749 1.552240 9.435142
Ar 0.407780 1.401918 0.226134
Ar 3.571571 6.283024 6.798759
Ar 7.514634 0.853415 0.074087
10
Lattice="10.0 0 0 0 10.0 0 0 0 10.0" Properties=species:S:1:pos:R:3 pbc="T T T" Time=263
Ar 0.562227 0.283073 9.700972
Ar 5.477278 3.918264 5.964484
Ar 3.005082 2.836439 8.870554
Ar 0.929829 7.896811 1.929724
Ar 4.480310 1.510607 7.949092
Ar 2.545935 6.894775 6.304267
Ar 4.510682 3.912535 4.910868
Ar 6.143896 1.604811 4.184096
Ar 8.992346 1.135332 6.647596
Ar 6.024979 0.085152 7.462314
10
Lattice="10.0 0 0 0 10.0 0 0 0 10.0" Properties=species:S:1:pos:R:3 pbc="T T T" Time=264
Ar 2.234232 8.860683 1.976019
Ar 6.855429 0.379566 6.777673
Ar 5.872989 0.002743 0.929926
Ar 3.928650 3.576033 9.040093
Ar 7.632821 8.391830 8.725470
Ar 2.102759 5.532703 6.637311
Ar 3.284598 6.272837 0.386590
Ar 1.880014 1.807703 8.142058
Ar 4.413121 5.987626 6.496447
Ar 4.535337 9.316882 4.850548
10
Lattice="10.0 0 0 0 10.0 0 0 0 10.0" Properties=species:S:1:pos:R:3 pbc="T T T" Time=265
Ar 3.906236 7.438294 4.251066
Ar 8.233681 6.840870 7.590973
Ar 8.740890 7.169054 2.989303
Ar 6.927470 9.255254 6.150462
Ar 0.785330 5.273053 9.501848
Ar 1.659583 4.170632 6.970356
Ar 2.058413 8.633138 5.862201
Ar 7.616132 2.010594 2.100018
Ar 9.833897 0.839920 6.345297
Ar 3.045702 8.548605 2.238779
10
Lattice="10.0 0 0 0 10.0 0 0 0 10.0" Properties=species:S:1:pos:R:3 pbc="T T T" Time=266
Ar 5.578240 6.015905 6.526113
Ar 9.611933 3.302176 8.404272
Ar 1.608791 4.335364 5.048680
Ar 9.926292 4.934475 3.260832
Ar 3.937840 2.154275 0.278225
Ar 1.216401 2.808559 7.303400
Ar 0.832227 0.993440 1.337812
Ar 3.352250 2.213484 6.057979
Ar 5.254679 5.692215 6.194146
Ar 1.556067 7.780327 9.627010
10
Lattice="10.0 0 0 0 10.0 0 0 0 10.0" Properties=species:S:1:pos:R:3 pbc="T T T" Time=267
Ar 7.250247 4.593514 8.801163
Ar 0.990186 9.763481 9.217572
Ar 4.476691 1.501675 7.108057
Ar 2.925114 0.613697 0.371201
Ar 7.090349 9.035498 1.054604
Ar 0.773220 1.446486 7.636444
Ar 9.606040 3.353743 6.813424
Ar 9.088367 2.416374 0.015939
Ar 0.675460 0.544511 6.042996
Ar 0.066431 7.012052 7.015237
10
Lattice="10.0 0 0 0 10.0 0 0 0 10.0" Properties=species:S:1:pos:R:3 pbc="T T T" Time=268
Ar 4.443696 8.690776 6.481311
Ar 2.368424 6.224790 0.030881
Ar 7.344594 8.667987 9.167434
Ar 5.923932 6.292920 7.481568
Ar 0.242859 5.916720 1.830984
Ar 0.330049 0.084408 7.969481
Ar 8.379854 5.714045 2.289037
Ar 4.824488 2.619262 3.973898
Ar 0.574801 9.877152 0.486748
Ar 8.576795 6.243777 4.403465
10
Lattice="10.0 0 0 0 10.0 0 0 0 10.0" Properties=species:S:1:pos:R:3 pbc="T T T" Time=269
Ar 1.637143 2.788040 4.161458
Ar 3.746659 2.686093 0.844193
Ar 0.212497 5.834299 1.226811
Ar 8.922755 1.972144 4.591938
Ar 3.395370 2.797943 2.607363
Ar 9.886883 8.722346 8.302542
Ar 7.153664 8.074352 7.764647
Ar 0.560608 2.822150 7.931858
Ar 0.474139 9.209778 4.930471
Ar 7.087158 5.475501 1.791692
10
Lattice="10.0 0 0 0 10.0 0 0 0 10.0" Properties=species:S:1:pos:R:3 pbc="T T T" Time=270
Ar 8.830590 6.885304 1.841605
Ar 5.124896 9.147395 1.657504
Ar 3.080399 3.000611 3.286189
Ar 1.921578 7.651367 1.702307
Ar 6.547901 9.679167 3.383737
Ar 9.443716 7.360285 8.635601
Ar 5.927451 0.434655 3.240254
Ar 6.296728 3.025038 1.889819
Ar 0.373479 8.542403 9.374197
Ar 5.597522 4.707228 9.179929
10
Lattice="10.0 0 0 0 10.0 0 0 0 10.0" Properties=species:S:1:pos:R:3 pbc="T T T" Time=271
Ar 6.024034 0.982569 9.521756
Ar 6.503139 5.608695 2.470779
Ar 5.948303 0.166924 5.345566
Ar 4.920400 3.330590 8.812677
Ar 9.700430 6.560394 4.160143
Ar 9.000551 5.998224 8.968659
Ar 4.701237 2.794957 8.715860
Ar 2.032849 3.227926 5.847779
Ar 0.272818 7.875027 3.817922
Ar 4.107886 3.938955 6.568166
10
Lattice="10.0 0 0 0 10.0 0 0 0 10.0" Properties=species:S:1:pos:R:3 pbc="T T T" Time=272
Ar 3.217477 5.079833 7.201908
Ar 7.881376 2.069988 3.284042
Ar 8.816205 7.333236 7.404944
Ar 7.919222 9.009812 5.923048
Ar 2.851080 3.443915 4.936119
Ar 8.557353 4.636122 9.301691
Ar 3.476909 5.152970 4.191909
Ar 7.768970 3.430815 9.805740
Ar 0.172190 7.207694 8.261673
Ar 2.618249 3.170682 3.956403
10
Lattice="10.0 0 0 0 10.0 0 0 0 10.0" Properties=species:S:1:pos:R:3 pbc="T T T" Time=273
Ar 0.410924 9.177091 4.882062
Ar 9.259612 8.531281 4.097304
Ar 1.684108 4.499549 9.464321
Ar 9.121583 0.298493 2.239818
Ar 6.001681 0.327323 5.712125
Ar 8.114155 3.274019 9.634723
Ar 4.049042 1.901528 0.461565
Ar 3.505085 3.633703 3.763698
Ar 0.071612 6.540475 2.705393
Ar 1.128616 2.402414 1.344634
10
Lattice="10.0 0 0 0 10.0 0 0 0 10.0" Properties=species:S:1:pos:R:3 pbc="T T T" Time=274
Ar 7.604372 3.274350 2.562219
Ar 0.637847 4.992574 4.910567
Ar 4.551949 1.665864 1.523661
Ar 0.323942 1.587177 8.556585
Ar 9.152056 7.210455 6.487217
Ar 7.671011 1.911999 9.967721
Ar 4.621185 8.650114 6.731212
Ar 9.241145 3.836507 7.721690
Ar 9.971098 5.873250 7.149155
Ar 9.639198 1.634393 8.733785
10
Lattice="10.0 0 0 0 10.0 0 0 0 10.0" Properties=species:S:1:pos:R:3 pbc="T T T" Time=275
Ar 4.797895 7.371651 0.242428
Ar 2.016007 1.453824 5.723782
Ar 7.419790 8.832181 3.582999
Ar 1.526300 2.875863 4.873349
Ar 2.302431 4.093588 7.262309
Ar 7.227867 0.549979 0.300719
Ar 5.193330 5.398699 3.000860
Ar 4.977206 4.039311 1.679683
Ar 9.870585 5.206022 1.592914
Ar 8.149779 0.866372 6.122936
10
Lattice="10.0 0 0 0 10.0 0 0 0 10.0" Properties=species:S:1:pos:R:3 pbc="T T T" Time=276
Ar 1.991419 1.468953 7.922639
Ar 3.394168 7.915073 6.536993
Ar 0.287630 5.998497 5.642338
Ar 2.348184 4.190782 1.288574
Ar 5.452780 0.976763 8.037380
Ar 6.784716 9.187958 0.633720
Ar 5.765474 2.147284 9.270507
Ar 0.713262 4.242114 5.637676
Ar 9.770099 4.538762 6.036695
Ar 7.040842 0.072110 3.413626
10
Lattice="10.0 0 0 0 10.0 0 0 0 10.0" Properties=species:S:1:pos:R:3 pbc="T T T" Time=277
Ar 9.184942 5.566256 5.602849
Ar 4.772343 4.376281 7.350227
Ar 3.155471 3.164814 7.701676
Ar 3.170054 5.505740 7.703774
Ar 8.603129 7.859939 8.812454
Ar 6.341566 7.825938 0.966720
Ar 6.337621 8.895887 5.540172
Ar 6.449315 4.444900 9.595651
Ar 9.669613 3.871502 0.480477
Ar 5.931904 9.277849 0.704315
10
Lattice="10.0 0 0 0 10.0 0 0 0 10.0" Properties=species:S:1:pos:R:3 pbc="T T T" Time=278
Ar 6.378466 9.663558 3.283060
Ar 6.150518 0.837489 8.163462
Ar 6.023328 0.331237 9.760995
Ar 3.991924 6.820698 4.118973
Ar 1.753470 4.743084 9.587493
Ar 5.898416 6.463917 1.299719
Ar 6.909777 5.644522 1.809871
Ar 2.184887 4.647804 3.553834
Ar 9.569592 3.204015 4.924070
Ar 4.822967 8.483588 7.995006
10
Lattice="10.0 0 0 0 10.0 0 0 0 10.0" Properties=species:S:1:pos:R:3 pbc="T T T" Time=279
Ar 3.571989 3.760860 0.963270
Ar 7.528719 7.298696 8.976688
Ar 8.891173 7.497646 1.820316
Ar 4.813779 8.135672 0.534176
Ar 4.903812 1.626228 0.362531
Ar 5.455292 5.101798 1.632737
Ar 7.481932 2.393158 8.079570
Ar 7.920460 4.850708 7.512017
Ar 9.469571 2.536528 9.367664
Ar 3.714002 7.689425 5.285680
10
Lattice="10.0 0 0 0 10.0 0 0 0 10.0" Properties=species:S:1:pos:R:3 pbc="T T T" Time=280
Ar 0.765512 7.858163 8.643480
Ar 8.906926 3.759922 9.789861
Ar 1.759015 4.664038 3.879693
Ar 5.635634 9.450648 6.949380
Ar 8.054154 8.509373 1.137569
Ar 5.012047 3.739778 1.965694
Ar 8.054210 9.141695 4.349330
Ar 3.656032 5.053611 1.470201
Ar 9.369549 1.869041 3.811258
Ar 2.605036 6.895259 2.576352
10
Lattice="10.0 0 0 0 10.0 0 0 0 10.0" Properties=species:S:1:pos:R:3 pbc="T T T" Time=281
Ar 7.959030 1.955465 6.323690
Ar 0.285132 0.221149 0.603032
Ar 4.626857 1.830430 5.939071
Ar 6.457489 0.765624 3.364584
Ar 1.204497 5.392515 1.912607
Ar 4.568807 2.377761 2.298651
Ar 8.626482 5.890228 0.619088
Ar 9.391604 5.256517 5.428383
Ar 9.269533 1.201554 8.254855
Ar 1.496069 6.101093 9.867025
10
Lattice="10.0 0 0 0 10.0 0 0 0 10.0" Properties=species:S:1:pos:R:3 pbc="T T T" Time=282
Ar 5.152548 6.052767 4.003899
Ar 1.663339 6.682376 1.416204
Ar 7.494697 8.996821 7.998451
Ar 7.279343 2.080600 9.779788
Ar 4.354840 2.275657 2.687644
Ar 4.125581 1.015729 2.631615
Ar 9.198755 2.638761 6.888846
Ar 5.127165 5.459432 9.386556
Ar 9.169517 0.534068 2.698452
Ar 0.387100 5.306932 7.157699
10
Lattice="10.0 0 0 0 10.0 0 0 0 10.0" Properties=species:S:1:pos:R:3 pbc="T T T" Time=283
Ar 2.346064 0.150071 1.684105
Ar 3.041547 3.143602 2.229377
Ar 0.362537 6.163211 0.057831
Ar 8.101199 3.395575 6.194992
Ar 7.505183 9.158795 3.462691
Ar 3.682353 9.653698 2.964577
Ar 9.771025 9.387294 3.158604
Ar 0.862726 5.662349 3.344729
Ar 9.069502 9.866580 7.142051
Ar 9.278134 4.512775 4.448363
10
Lattice="10.0 0 0 0 10.0 0 0 0 10.0" Properties=species:S:1:pos:R:3 pbc="T T T" Time=284
Ar 9.539580 4.247375 9.364312
Ar 4.419754 9.604829 3.042551
Ar 3.230377 3.329602 2.117211
Ar 8.923055 4.710549 2.610197
Ar 0.655567 6.042161 4.237748
Ar 3.239085 8.291439 3.297529
Ar 0.343295 6.135826 9.428362
Ar 6.598286 5.865265 7.302902
Ar 8.969488 9.199093 1.585650
Ar 8.169169 3.718620 1.739027
10
Lattice="10.0 0 0 0 10.0 0 0 0 10.0" Properties=species:S:1:pos:R:3 pbc="T T T" Time=285
Ar 6.733080 8.344684 7.044502
Ar 5.797962 6.066056 3.855724
Ar 6.098217 0.495992 4.176590
Ar 9.744909 6.025522 9.025405
Ar 3.805945 2.925527 5.012806
Ar 2.795833 6.929174 3.630497
Ar 0.915571 2.884358 5.698119
Ar 2.333853 6.068185 1.261072
Ar 8.869473 8.531606 6.029250
Ar 7.060200 2.924462 9.029692
10
Lattice="10.0 0 0 0 10.0 0 0 0 10.0" Properties=species:S:1:pos:R:3 pbc="T T T" Time=286
Ar 3.926575 2.441980 4.724689
Ar 7.176195 2.527312 4.668892
Ar 8.966057 7.662382 6.235970
Ar 0.566813 7.340563 5.440674
Ar 6.956323 9.808893 5.787866
Ar 2.352555 5.566880 3.963471
Ar 1.487853 9.632905 1.967876
Ar 8.069419 6.271105 5.219241
Ar 8.769459 7.864118 0.472849
Ar 5.951178 2.130234 6.320296
10
Lattice="10.0 0 0 0 10.0 0 0 0 10.0" Properties=species:S:1:pos:R:3 pbc="T T T" Time=287
Ar 1.120065 6.539275 2.404879
Ar 8.554430 8.988567 5.482060
Ar 1.833898 4.828773 8.295349
Ar 1.388718 8.655604 1.855943
Ar 0.106702 6.692259 6.562925
Ar 1.909278 4.204588 4.296448
Ar 2.060134 6.381452 8.237633
Ar 3.804984 6.474025 9.177408
Ar 8.669449 7.196632 4.916446
Ar 4.842155 1.336006 3.610901
10
Lattice="10.0 0 0 0 10.0 0 0 0 10.0" Properties=species:S:1:pos:R:3 pbc="T T T" Time=288
Ar 8.313552 0.636570 0.085067
Ar 9.932673 5.449826 6.295217
Ar 4.701718 1.995184 0.354755
Ar 2.210654 9.970640 8.271198
Ar 3.257082 3.575623 7.337984
Ar 1.466001 2.842295 4.629424
Ar 2.632415 3.129998 4.507391
Ar 9.540538 6.676927 3.135563
Ar 8.569440 6.529145 9.360043
Ar 3.733125 0.541778 0.901519
10
Lattice="10.0 0 0 0 10.0 0 0 0 10.0" Properties=species:S:1:pos:R:3 pbc="T T T" Time=289
Ar 5.507038 4.733857 7.765257
Ar 1.310913 1.911112 7.108381
Ar 7.569525 9.161507 2.414164
Ar 3.032592 1.285686 4.686451
Ar 6.407464 0.458985 8.113048
Ar 1.022725 1.480001 4.962400
Ar 3.204694 9.878631 0.777137
Ar 5.276110 6.879832 7.093728
Ar 8.469426 5.861633 3.803626
Ar 2.624096 9.747550 8.192136
10
Lattice="10.0 0 0 0 10.0 0 0 0 10.0" Properties=species:S:1:pos:R:3 pbc="T T T" Time=290
Ar 2.700524 8.831144 5.445446
Ar 2.689154 8.372399 7.921546
Ar 0.437349 6.327855 4.473563
Ar 3.854529 2.600731 1.101702
Ar 9.557847 7.342347 8.888112
Ar 0.579228 0.117653 5.295399
Ar 3.777193 6.627318 7.046860
Ar 1.011683 7.082737 1.051892
Ar 8.369412 5.194122 8.247209
Ar 1.515049 8.953296 5.482764
10
Lattice="10.0 0 0 0 10.0 0 0 0 10.0" Properties=species:S:1:pos:R:3 pbc="T T T" Time=291
Ar 9.894010 2.928424 3.125639
Ar 4.067394 4.833689 8.734720
Ar 3.305173 3.494204 6.532963
Ar 4.676482 3.915775 7.516951
Ar 2.708231 4.225710 9.663177
Ar 0.135715 8.755304 5.628391
Ar 4.349693 3.376005 3.316585
Ar 6.747254 7.285649 5.010054
Ar 8.269398 4.526611 2.690792
Ar 0.406003 8.159040 2.773391
10
Lattice="10.0 0 0 0 10.0 0 0 0 10.0" Properties=species:S:1:pos:R:3 pbc="T T T" Time=292
Ar 7.087712 7.025681 0.805820
Ar 5.445631 1.294984 9.547903
Ar 6.172997 0.660551 8.592362
Ar 5.498435 5.230818 3.932200
Ar 5.858614 1.109075 0.438241
Ar 9.692128 7.393046 5.961368
Ar 4.922197 0.124684 9.586308
Ar 2.482827 7.488561 8.968219
Ar 8.169383 3.859097 7.134374
Ar 9.296815 7.364720 0.064037
10
Lattice="10.0 0 0 0 10.0 0 0 0 10.0" Properties=species:S:1:pos:R:3 pbc="T T T" Time=293
Ar 4.281419 1.122935 8.486003
Ar 6.823878 7.756333 0.361114
Ar 9.040783 7.826886 0.651733
Ar 6.320451 6.545835 0.347424
Ar 9.008962 7.992426 1.213329
Ar 9.248540 6.030787 6.294346
Ar 5.494701 6.873363 5.856030
Ar 8.218400 7.691473 2.926383
Ar 8.069363 3.191587 1.577955
Ar 8.187627 6.570400 7.354682
10
Lattice="10.0 0 0 0 10.0 0 0 0 10.0" Properties=species:S:1:pos:R:3 pbc="T T T" Time=294
Ar 1.475120 5.220187 6.166188
Ar 8.203130 4.217527 1.176636
Ar 1.908718 4.993144 2.710913
Ar 7.142466 7.860853 6.762648
Ar 2.158339 4.876286 1.986297
Ar 8.804953 4.668529 6.627325
Ar 6.067024 3.621765 2.125752
Ar 3.953973 7.894385 6.884547
Ar 7.969343 2.524077 6.021536
Ar 7.078445 5.776080 4.645325
10
Lattice="10.0 0 0 0 10.0 0 0 0 10.0" Properties=species:S:1:pos:R:3 pbc="T T T" Time=295
Ar 8.668820 9.317439 3.846372
Ar 9.582451 0.678922 1.992158
Ar 4.513126 3.530379 9.421148
Ar 7.964395 9.175667 3.177870
Ar 5.571270 0.389175 8.108187
Ar 8.361420 3.306244 6.960249
Ar 6.639346 0.370168 8.395472
Ar 9.689535 8.097293 0.842739
Ar 7.869324 1.856566 0.465117
Ar 5.969209 4.981787 1.936022
10
Lattice="10.0 0 0 0 10.0 0 0 0 10.0" Properties=species:S:1:pos:R:3 pbc="T T T" Time=296
Ar 5.862523 3.414691 1.526557
Ar 0.961776 7.140319 2.807677
Ar 7.155233 2.049966 6.021950
Ar 8.786325 0.490483 9.593093
Ar 8.946502 5.919712 4.339509
Ar 7.917887 1.943962 7.293177
Ar 7.211663 7.118569 4.665195
Ar 5.425096 8.300201 4.800932
Ar 7.769302 1.189051 4.908696
Ar 4.859973 4.187495 9.226717
10
Lattice="10.0 0 0 0 10.0 0 0 0 10.0" Properties=species:S:1:pos:R:3 pbc="T T T" Time=297
Ar 3.053792 7.511452 9.204437
Ar 2.341107 3.601720 3.623193
Ar 9.797338 0.569553 2.622752
Ar 9.610684 1.805786 6.010626
Ar 2.321839 1.450246 0.570860
Ar 7.474355 0.581681 7.626104
Ar 7.783875 3.866970 0.934888
Ar 1.160658 8.503107 8.759122
Ar 7.669279 0.521538 9.352275
Ar 3.750737 3.393203 6.517412
10
Lattice="10.0 0 0 0 10.0 0 0 0 10.0" Properties=species:S:1:pos:R:3 pbc="T T T" Time=298
Ar 0.245063 1.608212 6.882320
Ar 3.720440 0.063121 4.438709
Ar 2.439341 9.089206 9.223522
Ar 0.435043 3.121088 2.428160
Ar 5.697185 6.980773 6.802210
Ar 7.030886 9.219393 7.959138
Ar 8.356086 0.615372 7.204582
Ar 6.896211 8.706019 2.717314
Ar 7.569297 9.853967 3.795778
Ar 2.641500 2.598912 3.808105
10
Lattice="10.0 0 0 0 10.0 0 0 0 10.0" Properties=species:S:1:pos:R:3 pbc="T T T" Time=299
Ar 7.436342 5.704968 4.560205
Ar 5.099772 6.524523 5.254224
Ar 5.081344 7.608858 5.824293
Ar 1.259403 4.436390 8.845693
Ar 9.072531 2.511301 3.033559
Ar 6.587410 7.857105 8.292127
Ar 8.928297 7.363774 3.474277
Ar 2.631755 8.908935 6.675503
Ar 7.469320 9.186394 8.239326
Ar 1.532263 1.804621 1.098798
10
Lattice="10.0 0 0 0 10.0 0 0 0 10.0" Properties=species:S:1:pos:R:3 pbc="T T T" Time=300
Ar 4.627630 9.801728 2.238089
Ar 6.479105 2.985924 6.069740
Ar 7.723346 6.128510 2.425064
Ar 2.083761 5.751694 5.263226
Ar 2.447876 8.041827 9.264908
Ar 6.143926 6.494810 8.625121
Ar 9.500509 4.112181 9.743968
Ar 8.367279 9.111817 0.633660
Ar 7.369362 8.518856 2.682906
Ar 0.423027 1.010331 8.389492
10
Lattice="10.0 0 0 0 10.0 0 0 0 10.0" Properties=species:S:1:pos:R:3 pbc="T T T" Time=301
Ar 1.818919 3.898485 9.915973
Ar 7.858438 9.447115 6.885146
Ar 0.365345 4.648372 9.025943
Ar 2.908118 7.066997 1.680758
Ar 5.823221 3.572353 5.496257
Ar 5.700398 5.132448 8.958120
Ar 0.072723 0.860591 6.013657
Ar 4.102802 9.314700 4.591817
Ar 7.269450 7.851384 7.126483
Ar 9.313792 0.216040 5.680187
10
Lattice="10.0 0 0 0 10.0 0 0 0 10.0" Properties=species:S:1:pos:R:3 pbc="T T T" Time=302
Ar 9.010207 7.995242 7.593857
Ar 9.237772 5.908307 7.700552
Ar 3.007344 3.168228 5.626823
Ar 3.732476 8.382301 8.098290
Ar 9.198566 9.102879 1.727606
Ar 5.256871 3.770085 9.291118
Ar 0.644937 7.609001 2.283346
Ar 9.838327 9.517584 8.549969
Ar 7.169534 7.183915 1.570066
Ar 8.204558 9.421750 2.970880
10
Lattice="10.0 0 0 0 10.0 0 0 0 10.0" Properties=species:S:1:pos:R:3 pbc="T T T" Time=303
Ar 6.201518 2.091987 5.271756
Ar 0.617110 2.369539 8.515960
Ar 5.649321 1.688096 2.227688
Ar 4.556834 9.697604 4.515822
Ar 2.573911 4.633405 7.958955
Ar 4.813343 2.407723 9.624117
Ar 1.216546 4.356898 8.552769
Ar 5.573853 9.720468 2.508121
Ar 7.069602 6.516400 6.013657
Ar 7.095941 8.627980 0.261831
10
Lattice="10.0 0 0 0 10.0 0 0 0 10.0" Properties=species:S:1:pos:R:3 pbc="T T T" Time=304
Ar 3.392820 6.188729 2.949644
Ar 1.996449 8.830757 9.331370
Ar 8.291297 0.207964 8.828553
Ar 5.381192 1.012908 0.933354
Ar 5.949293 0.163926 4.190247
Ar 4.369815 1.045361 9.957116
Ar 1.788164 1.104786 4.822194
Ar 1.309386 9.923368 6.466282
Ar 6.969667 5.848882 0.457246
Ar 5.987280 7.834227 7.552838
10
Lattice="10.0 0 0 0 10.0 0 0 0 10.0" Properties=species:S:1:pos:R:3 pbc="T T T" Time=305
Ar 0.584122 0.285473 0.627533
Ar 3.375783 5.291961 0.146779
Ar 0.933275 8.727851 5.429416
Ar 6.205545 2.328210 7.350893
Ar 9.324778 5.694468 0.421494
Ar 3.926288 9.682999 0.290113
Ar 2.359684 7.852667 1.091663
Ar 7.044922 0.126250 0.424440
Ar 6.869732 5.181364 4.900836
Ar 4.878619 7.040473 4.843843
10
Lattice="10.0 0 0 0 10.0 0 0 0 10.0" Properties=species:S:1:pos:R:3 pbc="T T T" Time=306
Ar 7.775424 4.382217 8.305422
Ar 4.755117 1.753164 0.962189
Ar 3.575252 7.247738 2.030279
Ar 7.030016 3.643509 3.768546
Ar 2.700263 1.225011 6.652742
Ar 3.482642 8.320641 0.622997
Ar 2.931207 4.600556 7.361122
Ar 2.780455 0.329124 4.382607
Ar 6.769798 4.513845 9.344426
Ar 3.769959 6.246718 2.134849
10
Lattice="10.0 0 0 0 10.0 0 0 0 10.0" Properties=species:S:1:pos:R:3 pbc="T T T" Time=307
Ar 4.966726 8.478962 5.983311
Ar 6.134452 8.214366 1.777599
Ar 6.217230 5.767625 8.631142
Ar 7.854487 4.958808 0.186199
Ar 6.075747 6.755553 2.883989
Ar 3.038999 6.958285 0.955880
Ar 3.502729 1.348442 3.630583
Ar 8.515988 0.531998 8.340775
Ar 6.669865 3.846326 3.788016
Ar 2.661297 5.452965 9.425854
10
Lattice="10.0 0 0 0 10.0 0 0 0 10.0" Properties=species:S:1:pos:R:3 pbc="T T T" Time=308
Ar 2.158123 2.575694 3.661101
Ar 7.513787 4.675568 2.593008
Ar 8.859487 4.286062 5.232187
Ar 8.678958 6.274107 6.603852
Ar 9.451231 2.286096 9.115241
Ar 2.595353 5.595957 1.288728
Ar 4.074250 8.096330 9.900043
Ar 4.251521 0.734870 2.298938
Ar 6.569836 3.178819 8.231705
Ar 1.552358 4.660635 6.716712
10
Lattice="10.0 0 0 0 10.0 0 0 0 10.0" Properties=species:S:1:pos:R:3 pbc="T T T" Time=309
Ar 9.349521 6.672426 1.338891
Ar 8.893123 1.136797 3.408398
Ar 1.501741 2.804501 1.833227
Ar 9.503433 7.589404 3.021508
Ar 2.826715 7.816614 5.346512
Ar 2.151707 4.233635 1.621583
Ar 4.645771 4.844217 6.169503
Ar 9.987054 0.937742 6.257102
Ar 6.469808 2.511311 2.675394
Ar 0.443417 3.868297 4.007564
10
Lattice="10.0 0 0 0 10.0 0 0 0 10.0" Properties=species:S:1:pos:R:3 pbc="T T T" Time=310
Ar 6.540918 0.769159 9.016681
Ar 0.272459 7.598025 4.223787
Ar 4.143995 1.322936 8.434266
Ar 0.327907 8.904705 9.439166
Ar 6.202198 3.347132 1.577784
Ar 1.708062 2.871313 1.954439
Ar 5.217293 1.592105 2.438963
Ar 5.722587 1.140614 0.215265
Ar 6.369778 1.843804 7.119083
Ar 9.334478 3.075960 1.298415
10
Lattice="10.0 0 0 0 10.0 0 0 0 10.0" Properties=species:S:1:pos:R:3 pbc="T T T" Time=311
Ar 3.732313 4.865880 6.694451
Ar 1.651795 4.059253 5.039175
Ar 6.786216 9.841294 5.035313
Ar 1.152383 0.220017 5.856845
Ar 9.577682 8.877649 7.809056
Ar 1.264452 1.509067 2.287282
Ar 5.788814 8.339992 8.708423
Ar 1.458121 1.343486 4.173430
Ar 6.269748 1.176297 1.562772
Ar 8.225537 2.283624 8.589270
10
Lattice="10.0 0 0 0 10.0 0 0 0 10.0" Properties=species:S:1:pos:R:3 pbc="T T T" Time=312
Ar 0.923776 8.962567 4.372136
Ar 3.031130 0.520481 5.854564
Ar 9.428428 8.359653 1.636357
Ar 1.976859 1.535330 2.274525
Ar 2.953171 4.408178 4.040326
Ar 0.820846 0.146820 2.620126
Ar 6.360330 5.087873 4.977893
Ar 7.193596 1.546383 8.131685
Ar 6.169719 0.508795 6.006450
Ar 7.116593 1.491288 5.880124
10
Lattice="10.0 0 0 0 10.0 0 0 0 10.0" Properties=species:S:1:pos:R:3 pbc="T T T" Time=313
Ar 8.115240 3.059254 2.049822
Ar 4.410465 6.981709 6.669952
Ar 2.070639 6.878012 8.237400
Ar 2.801333 2.850634 8.692216
Ar 6.328658 9.938705 0.271596
Ar 0.377237 8.784576 2.952945
Ar 6.931846 1.835754 1.247364
Ar 2.929075 1.749285 2.089952
Ar 6.069689 9.841294 0.450128
Ar 6.007649 0.698953 3.170978
10
Lattice="10.0 0 0 0 10.0 0 0 0 10.0" Properties=species:S:1:pos:R:3 pbc="T T T" Time=314
Ar 5.306705 7.155934 9.727518
Ar 5.789799 3.442939 7.485341
Ar 4.712848 5.396368 4.838441
Ar 3.625828 4.165962 5.109900
Ar 9.704145 5.469233 6.502867
Ar 9.933609 7.422317 3.285761
Ar 7.503362 8.583635 7.516834
Ar 8.664556 1.952188 6.048229
Ar 5.969532 9.173659 4.893821
Ar 4.898833 9.906749 0.461807
10
Lattice="10.0 0 0 0 10.0 0 0 0 10.0" Properties=species:S:1:pos:R:3 pbc="T T T" Time=315
Ar 2.498187 1.252632 7.405227
Ar 7.169135 9.904168 8.300729
Ar 7.355056 3.914723 1.439483
Ar 4.450323 5.481291 1.527584
Ar 2.245743 8.825880 3.547632
Ar 9.489982 6.060058 3.618578
Ar 8.074867 5.331514 3.786295
Ar 4.400036 2.155091 0.006507
Ar 6.703260 0.679889 8.524011
Ar 3.790014 9.114544 7.752643
10
Lattice="10.0 0 0 0 10.0 0 0 0 10.0" Properties=species:S:1:pos:R:3 pbc="T T T" Time=316
Ar 9.689669 5.349328 5.082935
Ar 8.548471 6.365397 9.116117
Ar 9.997303 2.433125 8.040515
Ar 5.274777 6.796574 7.945278
Ar 4.787341 2.182528 0.592397
Ar 9.046355 4.697800 3.951394
Ar 8.646374 2.079392 0.055757
Ar 0.135517 2.357994 3.964784
Ar 7.436988 2.186119 2.154200
Ar 2.681195 8.322340 5.043479
10
Lattice="10.0 0 0 0 10.0 0 0 0 10.0" Properties=species:S:1:pos:R:3 pbc="T T T" Time=317
Ar 6.881148 9.446028 2.760642
Ar 9.923779 2.833335 9.933437
Ar 2.639550 0.951525 4.641545
Ar 6.099230 8.111858 4.362972
Ar 7.328938 5.539176 7.637162
Ar 8.602797 3.335577 4.284202
Ar 9.217811 8.827236 6.325228
Ar 5.870997 2.560898 7.923063
Ar 8.174745 3.685641 5.782458
Ar 1.572378 7.530133 2.334315
10
Lattice="10.0 0 0 0 10.0 0 0 0 10.0" Properties=species:S:1:pos:R:3 pbc="T T T" Time=318
Ar 4.072688 3.542789 0.438456
Ar 1.299087 9.301272 0.750757
Ar 5.281800 9.469925 1.242572
Ar 6.923684 9.427141 0.780665
Ar 9.870535 8.895824 4.681926
Ar 8.159177 1.973295 4.616904
Ar 9.789248 5.575079 2.594699
Ar 1.606479 2.763798 1.881341
Ar 8.912501 5.185162 9.410720
Ar 0.463560 6.737925 9.625152
10
Lattice="10.0 0 0 0 10.0 0 0 0 10.0" Properties=species:S:1:pos:R:3 pbc="T T T" Time=319
Ar 1.264231 7.639556 8.116264
Ar 2.674395 5.769210 1.568077
Ar 7.924051 7.988326 7.843599
Ar 7.748134 0.742420 7.198365
Ar 2.412131 2.252474 1.726692
Ar 7.715579 0.610997 4.949531
Ar 0.360686 2.322922 8.864169
Ar 7.341960 2.966697 5.839620
Ar 9.650236 6.684700 3.039056
Ar 9.354742 5.945718 6.915988
10
Lattice="10.0 0 0 0 10.0 0 0 0 10.0" Properties=species:S:1:pos:R:3 pbc="T T T" Time=320
Ar 8.455775 1.736323 5.794070
Ar 4.049703 2.237149 2.385397
Ar 0.566250 6.506728 4.444640
Ar 8.572634 2.057697 3.616051
Ar 4.953728 5.609124 8.771458
Ar 7.271981 9.248699 5.282158
Ar 0.932123 9.070765 5.133641
Ar 3.077441 3.169596 9.797899
Ar 0.387964 8.184231 6.667389
Ar 8.245931 5.153516 4.206824
10
Lattice="10.0 0 0 0 10.0 0 0 0 10.0" Properties=species:S:1:pos:R:3 pbc="T T T" Time=321
Ar 5.647321 5.833091 3.471878
Ar 5.425012 8.705088 3.202717
Ar 3.208448 5.025130 1.045682
Ar 9.397134 3.372974 0.033745
Ar 7.495324 8.965773 5.816225
Ar 6.828383 7.886397 5.614775
Ar 1.503560 5.818608 1.403113
Ar 8.812920 3.372501 3.756179
Ar 1.125692 9.683762 0.295723
Ar 7.137120 4.361311 1.497659
10
Lattice="10.0 0 0 0 10.0 0 0 0 10.0" Properties=species:S:1:pos:R:3 pbc="T T T" Time=322
Ar 2.838867 9.929859 1.149695
Ar 6.800321 5.173026 4.020038
Ar 5.850648 3.543530 7.646723
Ar 0.221636 4.688251 6.451430
Ar 0.036921 2.322423 2.860991
Ar 6.384784 6.524093 5.947393
Ar 2.075008 2.566468 7.672561
Ar 4.548399 3.575405 7.714457
Ar 1.863411 1.183280 3.924083
Ar 6.028307 3.569106 8.788493
10
Lattice="10.0 0 0 0 10.0 0 0 0 10.0" Properties=species:S:1:pos:R:3 pbc="T T T" Time=323
Ar 0.030412 4.026626 8.827513
Ar 8.175629 1.640966 4.837358
Ar 8.492869 2.061920 4.247758
Ar 1.046137 6.003529 2.869114
Ar 2.578638 5.679266 9.905794
Ar 5.941065 5.161596 6.279976
Ar 2.646434 9.314338 3.942013
Ar 0.283878 3.778309 1.672736
Ar 2.601130 2.682797 7.552444
Ar 4.919493 2.776902 6.079326
10
Lattice="10.0 0 0 0 10.0 0 0 0 10.0" Properties=species:S:1:pos:R:3 pbc="T T T" Time=324
Ar 7.221957 8.123393 6.505331
Ar 9.550938 8.108904 5.654673
Ar 1.135291 0.580301 0.848644
Ar 1.870639 7.318806 9.286797
Ar 5.120351 9.036112 6.950594
Ar 5.497346 3.799103 6.612563
Ar 3.217857 6.062206 0.211465
Ar 6.019112 3.981219 5.631007
Ar 3.338853 4.182313 1.180807
Ar 3.810727 1.984700 3.370318
10
Lattice="10.0 0 0 0 10.0 0 0 0 10.0" Properties=species:S:1:pos:R:3 pbc="T T T" Time=325
Ar 4.413501 2.220160 4.183147
Ar 0.961934 4.624194 6.405663
Ar 3.742025 9.051328 7.515855
Ar 2.695141 8.634086 5.704482
Ar 7.662065 2.392959 3.995394
Ar 5.053628 2.436612 6.945150
Ar 3.789281 2.810075 6.480918
Ar 1.754344 4.184127 9.589279
Ar 4.076575 5.681827 4.809171
Ar 2.701962 1.192495 0.661308
10
Lattice="10.0 0 0 0 10.0 0 0 0 10.0" Properties=species:S:1:pos:R:3 pbc="T T T" Time=326
Ar 1.605047 6.316924 1.860963
Ar 2.372934 1.139485 7.156652
Ar 6.348760 7.522356 4.183065
Ar 3.519633 9.949375 2.122161
Ar 0.203774 5.749808 1.040196
Ar 4.609900 1.074118 7.277756
Ar 4.360714 9.557945 2.750371
Ar 7.489587 4.387039 3.547532
Ar 4.814297 7.181332 8.437539
Ar 1.593196 0.400290 7.952299
10
Lattice="10.0 0 0 0 10.0 0 0 0 10.0" Properties=species:S:1:pos:R:3 pbc="T T T" Time=327
Ar 8.796593 0.413687 9.538773
Ar 3.783932 7.654776 7.907641
Ar 8.955500 5.993385 0.850285
Ar 4.344120 1.264662 8.539829
Ar 2.745483 9.106657 8.084997
Ar 4.166325 9.711579 7.610420
Ar 4.931994 6.305861 9.019773
Ar 3.224830 4.589950 7.505785
Ar 5.552020 8.680837 2.065908
Ar 0.484431 9.608084 5.243290
10
Lattice="10.0 0 0 0 10.0 0 0 0 10.0" Properties=species:S:1:pos:R:3 pbc="T T T" Time=328
Ar 5.988180 4.510467 7.216608
Ar 5.195042 4.170180 8.658508
Ar 1.562241 4.464414 7.517506
Ar 5.168615 2.579945 4.957505
Ar 5.287152 2.463490 5.129774
Ar 3.722759 8.349040 7.943084
Ar 5.503264 3.053782 5.289168
Ar 8.960072 4.792862 1.464038
Ar 6.289743 0.180341 5.694276
Ar 9.375546 8.815766 2.534402
10
Lattice="10.0 0 0 0 10.0 0 0 0 10.0" Properties=species:S:1:pos:R:3 pbc="T T T" Time=329
Ar 3.179766 8.607246 4.894442
Ar 6.606164 0.685550 9.409365
Ar 4.168981 2.935443 4.184727
Ar 5.993115 3.895259 1.375198
Ar 7.828732 5.820324 2.174577
Ar 3.279257 6.986512 8.275707
Ar 6.074543 9.801694 1.558570
Ar 4.695314 4.995772 5.422291
Ar 7.027466 1.679846 9.322645
Ar 8.266661 8.023447 9.825515
10
Lattice="10.0 0 0 0 10.0 0 0 0 10.0" Properties=species:S:1:pos:R:3 pbc="T T T" Time=330
Ar 0.371381 2.704041 2.572232
Ar 8.017259 7.200909 0.160273
Ar 6.775721 1.406472 0.851948
Ar 3.473803 2.547423 0.004790
Ar 4.577100 3.626881 7.753931
Ar 2.835755 5.623984 8.608330
Ar 5.782843 4.763036 7.081516
Ar 0.430556 5.198682 9.380543
Ar 7.765192 3.179345 2.951015
Ar 7.157775 7.231129 7.116627
10
Lattice="10.0 0 0 0 10.0 0 0 0 10.0" Properties=species:S:1:pos:R:3 pbc="T T T" Time=331
Ar 7.562996 6.800836 0.250021
Ar 9.428481 3.716569 0.911150
Ar 9.382460 9.877497 7.519167
Ar 0.954490 1.199586 8.634381
Ar 1.325468 1.433439 3.333287
Ar 2.392252 4.261456 8.940953
Ar 5.491142 9.724375 2.604467
Ar 6.165798 5.401595 3.338797
Ar 8.502791 4.678546 6.579410
Ar 6.048891 6.438810 4.407739
10
Lattice="10.0 0 0 0 10.0 0 0 0 10.0" Properties=species:S:1:pos:R:3 pbc="T T T" Time=332
Ar 4.754614 0.897631 7.927810
Ar 0.839703 0.232229 1.662028
Ar 1.989199 8.348522 4.186385
Ar 8.435175 9.851748 7.263974
Ar 8.073812 9.239972 8.912655
Ar 1.948751 2.898930 9.273576
Ar 5.199467 4.685737 8.127404
Ar 1.901038 5.604507 7.297053
Ar 9.240389 6.177748 0.207806
Ar 4.940007 5.646492 1.698850
10
Lattice="10.0 0 0 0 10.0 0 0 0 10.0" Properties=species:S:1:pos:R:3 pbc="T T T" Time=333
Ar 1.946231 4.994426 5.605599
Ar 2.250924 6.747889 2.412905
Ar 4.595934 6.819543 0.853600
Ar 5.915865 8.503912 5.893570
Ar 4.822157 7.046505 4.492023
Ar 1.505251 1.536405 9.606199
Ar 4.907791 9.647100 3.650340
Ar 7.636287 5.807338 1.255223
Ar 9.977987 7.676950 3.836202
Ar 3.831113 4.854257 8.990046
10
Lattice="10.0 0 0 0 10.0 0 0 0 10.0" Properties=species:S:1:pos:R:3 pbc="T T T" Time=334
Ar 9.137849 9.091221 3.283388
Ar 3.662146 3.263549 3.163783
Ar 7.202669 5.290564 7.520816
Ar 3.396562 7.156090 4.523131
Ar 1.570493 4.853025 0.071425
Ar 1.061750 0.173879 9.938822
Ar 4.616116 4.608462 9.173276
Ar 3.371536 6.010168 5.213393
Ar 0.715585 9.176152 7.464599
Ar 2.722220 4.062021 6.281242
10
Lattice="10.0 0 0 0 10.0 0 0 0 10.0" Properties=species:S:1:pos:R:3 pbc="T T T" Time=335
Ar 6.329466 3.188015 0.961177
Ar 5.073366 9.779209 3.914661
Ar 9.809405 3.761586 4.188031
Ar 0.877264 5.808271 3.152699
Ar 8.318827 2.659539 5.650824
Ar 0.618250 8.811354 0.271445
Ar 4.324440 9.569828 4.696210
Ar 9.106785 6.212998 9.171563
Ar 1.453181 0.675355 1.092996
Ar 1.613327 3.269785 3.572436
10
Lattice="10.0 0 0 0 10.0 0 0 0 10.0" Properties=species:S:1:pos:R:3 pbc="T T T" Time=336
Ar 3.521083 7.284809 8.638966
Ar 6.484587 6.294868 4.665538
Ar 2.416142 2.232608 0.855246
Ar 8.357969 4.460627 1.782161
Ar 5.067160 0.466053 1.230224
Ar 0.174749 7.448829 0.604070
Ar 4.032765 4.531193 0.219144
Ar 4.842032 6.415660 3.129836
Ar 2.190777 2.174556 4.721391
Ar 0.504431 2.477542 0.863635
10
Lattice="10.0 0 0 0 10.0 0 0 0 10.0" Properties=species:S:1:pos:R:3 pbc="T T T" Time=337
Ar 0.712700 1.381603 6.316755
Ar 7.895715 2.810501 5.416512
Ar 5.022862 0.703635 7.522465
Ar 5.838676 3.112988 0.411622
Ar 1.815490 8.272565 6.809627
Ar 9.731246 6.086297 0.936692
Ar 3.741183 9.492585 5.741981
Ar 0.577279 6.618321 7.088107
Ar 2.928377 3.673766 8.349790
Ar 9.395554 1.685293 8.154827
10
Lattice="10.0 0 0 0 10.0 0 0 0 10.0" Properties=species:S:1:pos:R:3 pbc="T T T" Time=338
Ar 7.904316 5.478398 3.994544
Ar 9.306849 9.326134 6.167492
Ar 7.629604 9.174658 4.189684
Ar 3.319381 1.765349 9.041082
Ar 8.563820 6.079076 2.389030
Ar 9.287742 4.723765 1.269314
Ar 3.449602 4.453977 1.264818
Ar 6.312520 6.820983 1.046374
Ar 3.665977 5.172975 1.978189
Ar 8.286655 0.893046 5.446019
10
Lattice="10.0 0 0 0 10.0 0 0 0 10.0" Properties=species:S:1:pos:R:3 pbc="T T T" Time=339
Ar 5.095938 9.575192 1.672327
Ar 0.717981 5.841767 6.918472
Ar 0.236349 7.645683 0.856906
Ar 0.800087 0.417710 7.670543
Ar 5.312155 3.885596 7.968433
Ar 8.844239 3.361233 1.601936
Ar 3.158022 9.415369 6.787650
Ar 2.047753 7.023634 5.004643
Ar 4.403576 6.672185 5.606587
Ar 7.177752 0.100799 2.737218
10
Lattice="10.0 0 0 0 10.0 0 0 0 10.0" Properties=species:S:1:pos:R:3 pbc="T T T" Time=340
Ar 2.287547 3.671976 9.350138
Ar 2.129125 2.357386 7.669460
Ar 2.843088 6.116702 7.524121
Ar 8.280793 9.070071 6.300004
Ar 2.060495 1.692143 3.547824
Ar 8.400745 1.998682 1.934542
Ar 2.866686 4.377570 2.311285
Ar 7.782985 7.226286 8.962909
Ar 5.140932 8.170586 9.234184
Ar 6.068842 9.308574 0.028414
10
Lattice="10.0 0 0 0 10.0 0 0 0 10.0" Properties=species:S:1:pos:R:3 pbc="T T T" Time=341
Ar 9.479152 7.768758 7.027948
Ar 3.540267 8.873004 8.420450
Ar 5.449828 4.587720 4.191336
Ar 5.761497 7.722433 4.929466
Ar 8.808834 9.498691 9.127215
Ar 7.957252 0.636132 2.267148
Ar 2.575351 9.339771 7.834919
Ar 3.518213 7.428940 2.921173
Ar 5.878293 9.668986 2.861782
Ar 4.959936 8.516349 7.319614
10
Lattice="10.0 0 0 0 10.0 0 0 0 10.0" Properties=species:S:1:pos:R:3 pbc="T T T" Time=342
Ar 6.670757 1.865546 4.705766
Ar 4.951409 5.388614 9.171432
Ar 8.056568 3.058739 0.858550
Ar 3.242201 6.374796 3.558927
Ar 5.557173 7.305237 4.706606
Ar 7.513758 9.273582 2.599755
Ar 2.284017 4.301973 3.358554
Ar 9.253444 7.631592 6.879436
Ar 6.615618 1.167345 6.489351
Ar 3.851063 7.724166 4.610842
10
Lattice="10.0 0 0 0 10.0 0 0 0 10.0" Properties=species:S:1:pos:R:3 pbc="T T T" Time=343
Ar 3.862363 5.962334 2.383582
Ar 6.362710 1.904141 9.922545
Ar 0.663308 1.529758 7.525764
Ar 0.722907 5.027157 2.188387
Ar 2.305512 5.111785 0.285998
Ar 7.070269 7.911034 2.932360
Ar 1.992495 9.264266 8.882077
Ar 4.988673 7.834243 0.837698
Ar 7.352939 2.665704 0.116920
Ar 2.742218 6.931977 1.902053
10
Lattice="10.0 0 0 0 10.0 0 0 0 10.0" Properties=species:S:1:pos:R:3 pbc="T T T" Time=344
Ar 1.053969 0.059130 0.061377
Ar 7.774012 8.419669 0.673659
Ar 3.270048 0.000776 4.192978
Ar 8.203602 3.679498 0.817827
Ar 9.053894 2.918322 5.865394
Ar 6.626781 6.548486 3.264964
Ar 1.700969 4.226552 4.405600
Ar 0.723903 8.036895 4.795961
Ar 8.090259 4.164054 3.744512
Ar 1.633343 6.139824 9.193281
10
Lattice="10.0 0 0 0 10.0 0 0 0 10.0" Properties=species:S:1:pos:R:3 pbc="T T T" Time=345
Ar 8.245642 4.155868 7.739203
Ar 9.185128 4.935053 1.424737
Ar 5.876787 8.471796 0.860191
Ar 5.684293 2.331837 9.447271
Ar 5.802276 0.724856 1.444782
Ar 6.183294 5.185939 3.597570
Ar 1.409444 9.188838 9.929122
Ar 6.459135 8.239549 8.754220
Ar 8.827765 5.662547 7.372141
Ar 0.524401 5.347732 6.484485
10
Lattice="10.0 0 0 0 10.0 0 0 0 10.0" Properties=species:S:1:pos:R:3 pbc="T T T" Time=346
Ar 5.437316 8.252605 5.417029
Ar 0.596244 1.450437 2.175814
Ar 8.483527 6.942815 7.527404
Ar 3.164983 0.984176 8.076713
Ar 2.550659 8.531389 7.024173
Ar 5.739806 3.823392 3.930175
Ar 1.117919 4.151124 5.452645
Ar 2.194367 8.442202 2.712479
Ar 9.565271 7.161040 0.999769
Ar 9.415459 4.555639 3.775688
10
Lattice="10.0 0 0 0 10.0 0 0 0 10.0" Properties=species:S:1:pos:R:3 pbc="T T T" Time=347
Ar 2.628966 2.349285 3.094869
Ar 2.007360 7.965822 2.926891
Ar 1.090264 5.413830 4.194625
Ar 0.645674 9.636517 6.706153
Ar 9.299042 6.337926 2.603568
Ar 5.296317 2.460845 4.262781
Ar 0.826395 9.113410 0.976167
Ar 7.929601 8.644855 6.670729
Ar 0.302779 8.659594 4.627392
Ar 8.306537 3.763544 1.066881
10
Lattice="10.0 0 0 0 10.0 0 0 0 10.0" Properties=species:S:1:pos:R:3 pbc="T T T" Time=348
Ar 9.820617 6.445965 0.772709
Ar 3.418476 4.481207 3.677968
Ar 3.697002 3.884844 0.861846
Ar 8.126365 8.288860 5.335593
Ar 6.047424 4.144461 8.182962
Ar 4.852828 1.098299 4.595387
Ar 0.534873 4.075695 6.499693
Ar 3.664836 8.847508 0.628979
Ar 1.040287 0.158148 8.255016
Ar 7.197613 2.971450 8.358071
10
Lattice="10.0 0 0 0 10.0 0 0 0 10.0" Properties=species:S:1:pos:R:3 pbc="T T T" Time=349
Ar 7.012266 0.542644 8.450549
Ar 4.829597 0.996590 4.429045
Ar 6.303741 2.355856 7.529069
Ar 5.607058 6.941206 3.965040
Ar 2.795803 1.950996 3.762354
Ar 4.409341 9.735752 4.927993
Ar 0.243351 9.037982 2.023216
Ar 9.400068 9.050160 4.587230
Ar 1.777793 1.656701 1.882637
Ar 6.088688 2.179355 5.649260
10
Lattice="10.0 0 0 0 10.0 0 0 0 10.0" Properties=species:S:1:pos:R:3 pbc="T T T" Time=350
Ar 4.203916 4.639324 6.128388
Ar 6.240718 7.511974 5.180122
Ar 8.910481 0.826868 4.196291
Ar 3.087751 5.593553 2.594486
Ar 9.544137 9.757578 9.341740
Ar 3.965853 8.373205 5.260600
Ar 9.951828 4.000269 7.546738
Ar 5.135301 9.252812 8.545481
Ar 2.515298 3.155254 5.510257
Ar 4.979808 1.387214 2.940455
10
Lattice="10.0 0 0 0 10.0 0 0 0 10.0" Properties=species:S:1:pos:R:3 pbc="T T T" Time=351
Ar 1.395570 8.735994 3.806233
Ar 7.651883 4.027487 5.931140
Ar 1.517220 9.297892 0.863534
Ar 0.568444 4.245898 1.223933
Ar 6.292470 7.564164 4.921132
Ar 3.522319 7.010519 5.593261
Ar 9.660306 8.962555 3.070259
Ar 0.870533 9.455464 2.503734
Ar 3.252798 4.653807 9.137868
Ar 3.870933 0.595079 0.231633
10
Lattice="10.0 0 0 0 10.0 0 0 0 10.0" Properties=species:S:1:pos:R:3 pbc="T T T" Time=352
Ar 8.587228 2.832668 1.484080
Ar 9.063053 0.542998 6.682157
Ar 4.123959 7.768915 7.530778
Ar 8.049137 2.898244 9.853378
Ar 3.040804 5.370751 0.500525
Ar 3.078781 5.647834 5.925923
Ar 9.368783 3.924841 8.593780
Ar 6.605766 9.658116 6.461988
Ar 3.990294 6.152355 2.765477
Ar 2.762058 9.802944 7.522810
10
Lattice="10.0 0 0 0 10.0 0 0 0 10.0" Properties=species:S:1:pos:R:3 pbc="T T T" Time=353
Ar 5.778937 6.929299 9.162008
Ar 0.474223 7.058510 7.433174
Ar 6.730712 6.239934 4.197981
Ar 5.529830 1.550589 8.482824
Ar 9.789139 3.177337 6.079917
Ar 2.635242 4.285148 6.258585
Ar 9.077105 8.887078 4.117353
Ar 2.341085 9.860864 0.420148
Ar 4.727791 7.650904 6.393086
Ar 1.653184 9.010809 4.813987
10
Lattice="10.0 0 0 0 10.0 0 0 0 10.0" Properties=species:S:1:pos:R:3 pbc="T T T" Time=354
Ar 2.970663 1.025929 6.839984
Ar 1.885395 3.574022 8.184191
Ar 9.337468 4.710951 0.865185
Ar 3.010498 0.202930 7.112231
Ar 6.537472 0.983923 1.659307
Ar 2.191702 2.922462 6.591247
Ar 8.785436 3.849321 9.640917
Ar 8.076402 0.063611 4.378307
Ar 5.465289 9.149453 0.020697
Ar 0.544309 8.218679 2.105164
10
Lattice="10.0 0 0 0 10.0 0 0 0 10.0" Properties=species:S:1:pos:R:3 pbc="T T T" Time=355
Ar 0.162388 5.122558 4.517962
Ar 3.296567 0.089534 8.935209
Ar 1.944224 3.181967 7.532389
Ar 0.491167 8.855271 5.741638
Ar 3.285805 8.790508 7.238696
Ar 1.748163 1.559775 6.923908
Ar 8.493765 8.811564 5.164481
Ar 3.811718 0.266358 8.336467
Ar 6.202786 0.648004 3.648308
Ar 9.435436 7.426549 9.396341
10
Lattice="10.0 0 0 0 10.0 0 0 0 10.0" Properties=species:S:1:pos:R:3 pbc="T T T" Time=356
Ar 7.355215 9.196545 2.203426
Ar 4.707731 6.605063 9.686267
Ar 4.551007 1.653026 4.199654
Ar 7.970741 7.530239 4.363559
Ar 0.034138 6.597095 2.818087
Ar 1.304625 0.197086 7.256527
Ar 8.202065 3.773764 0.687983
Ar 9.547035 0.469106 2.294627
Ar 6.940282 2.146552 7.275918
Ar 8.326562 6.634419 6.687518
10
Lattice="10.0 0 0 0 10.0 0 0 0 10.0" Properties=species:S:1:pos:R:3 pbc="T T T" Time=357
Ar 4.548041 3.270533 9.888889
Ar 6.159920 3.134680 0.389656
Ar 7.157796 0.124128 0.866935
Ar 5.450327 6.205206 2.985484
Ar 6.782465 4.403655 8.397454
Ar 0.861081 8.834358 7.589129
Ar 7.910353 8.735963 6.211482
Ar 5.241337 0.657789 6.300482
Ar 7.677779 3.645101 0.903527
Ar 7.217689 5.842289 3.978696
10
Lattice="10.0 0 0 0 10.0 0 0 0 10.0" Properties=species:S:1:pos:R:3 pbc="T T T" Time=358
Ar 1.740864 7.344519 7.574351
Ar 7.612108 9.664297 1.093044
Ar 9.764584 8.595230 7.534217
Ar 2.929912 4.880174 1.607408
Ar 3.530795 2.210215 3.976821
Ar 0.417537 7.471630 7.921730
Ar 7.618640 3.698163 1.734980
Ar 0.935642 0.846475 0.306338
Ar 8.415275 5.143649 4.531136
Ar 6.108816 5.050157 1.269876
10
Lattice="10.0 0 0 0 10.0 0 0 0 10.0" Properties=species:S:1:pos:R:3 pbc="T T T" Time=359
Ar 8.933633 1.418510 5.259798
Ar 9.064296 6.193891 1.796435
Ar 2.371373 7.066331 4.201498
Ar 0.409484 3.555145 0.229325
Ar 0.279126 0.016778 9.556182
Ar 9.973994 6.108901 8.254332
Ar 7.326927 8.660362 7.258479
Ar 6.629946 1.035161 4.312193
Ar 9.152824 6.642215 8.158764
Ar 4.999956 4.258023 8.561064
10
Lattice="10.0 0 0 0 10.0 0 0 0 10.0" Properties=species:S:1:pos:R:3 pbc="T T T" Time=360
Ar 6.126583 5.492480 2.945198
Ar 0.516484 2.723484 2.499826
Ar 4.978063 5.537595 0.868724
Ar 7.889055 2.230116 8.851241
Ar 7.027456 7.823340 5.135543
Ar 9.530367 4.746030 8.587035
Ar 7.035225 3.622553 2.781980
Ar 2.324250 1.223848 8.318048
Ar 9.890374 8.140781 1.786393
Ar 3.891087 3.465898 5.852249
10
Lattice="10.0 0 0 0 10.0 0 0 0 10.0" Properties=species:S:1:pos:R:3 pbc="T T T" Time=361
Ar 3.319537 9.566451 0.630600
Ar 1.968671 9.253077 3.203217
Ar 7.584754 4.008860 7.535949
Ar 5.368626 0.905086 7.473158
Ar 3.775788 5.629903 0.714903
Ar 9.084033 3.384918 8.919423
Ar 6.743521 8.584744 8.305480
Ar 8.018552 1.412533 2.323902
Ar 0.630632 9.637587 5.414338
Ar 2.782217 2.673773 3.143434
10
Lattice="10.0 0 0 0 10.0 0 0 0 10.0" Properties=species:S:1:pos:R:3 pbc="T T T" Time=362
Ar 0.512487 3.640434 8.316007
Ar 3.420858 5.782671 3.906609
Ar 0.191441 2.480124 4.203170
Ar 2.848197 9.580055 6.095075
Ar 0.524119 3.436466 6.294265
Ar 8.637700 2.023806 9.251810
Ar 6.451823 3.546923 3.828980
Ar 3.712853 1.601219 6.329756
Ar 1.370891 1.134393 9.042282
Ar 1.673347 1.881648 0.434619
10
Lattice="10.0 0 0 0 10.0 0 0 0 10.0" Properties=species:S:1:pos:R:3 pbc="T T T" Time=363
Ar 7.705437 7.714417 6.001413
Ar 4.873046 2.312263 4.609999
Ar 2.798120 0.951393 0.870383
Ar 0.327766 8.255026 4.716992
Ar 7.272450 1.243029 1.873626
Ar 8.191374 0.662691 9.584204
Ar 6.160126 8.509100 9.352481
Ar 9.407154 1.789905 0.335611
Ar 2.111148 2.631200 2.670228
Ar 0.564478 1.089523 7.725803
10
Lattice="10.0 0 0 0 10.0 0 0 0 10.0" Properties=species:S:1:pos:R:3 pbc="T T T" Time=364
Ar 4.898388 1.788405 3.686833
Ar 6.325234 8.841856 5.313390
Ar 5.404799 9.422658 7.537590
Ar 7.807333 6.929988 3.338907
Ar 4.020782 9.049594 7.452977
Ar 7.745045 9.301575 9.916600
Ar 5.868429 3.471277 4.875981
Ar 5.101459 1.978599 4.341465
Ar 2.851392 4.127968 6.298110
Ar 9.455624 0.297434 5.017055
10
Lattice="10.0 0 0 0 10.0 0 0 0 10.0" Properties=species:S:1:pos:R:3 pbc="T T T" Time=365
Ar 2.091338 5.862394 1.372253
Ar 7.777423 5.371449 6.016781
Ar 8.011478 7.893921 4.204795
Ar 5.286900 5.604950 1.960822
Ar 0.769111 6.856159 3.032332
Ar 7.298694 7.940438 0.248979
Ar 5.576731 8.433454 0.399481
Ar 0.795788 2.167314 8.347334
Ar 3.591636 5.624739 9.925995
Ar 8.346771 9.505343 2.308305
10
Lattice="10.0 0 0 0 10.0 0 0 0 10.0" Properties=species:S:1:pos:R:3 pbc="T T T" Time=366
Ar 9.391691 0.036971 9.403908
Ar 9.229613 1.901040 6.720168
Ar 0.618298 6.365224 0.872012
Ar 2.766468 4.279912 0.582736
Ar 7.517298 4.662685 8.611679
Ar 6.852344 6.579300 0.581358
Ar 5.285055 3.395672 5.922998
Ar 6.382693 2.255400 2.006950
Ar 4.331879 7.121511 3.553879
Ar 7.237918 8.713254 9.599555
10
Lattice="10.0 0 0 0 10.0 0 0 0 10.0" Properties=species:S:1:pos:R:3 pbc="T T T" Time=367
Ar 6.692036 4.211548 7.435568
Ar 0.681803 8.430631 7.423556
Ar 3.225117 4.836525 7.539233
Ar 0.246038 2.954872 9.204652
Ar 4.265481 2.469214 4.191030
Ar 6.406029 5.218152 0.913733
Ar 4.993343 8.357901 1.446518
Ar 1.969598 2.343486 5.666566
Ar 5.072129 8.618280 7.181753
Ar 6.129067 7.921168 6.890803
10
Lattice="10.0 0 0 0 10.0 0 0 0 10.0" Properties=species:S:1:pos:R:3 pbc="T T T" Time=368
Ar 3.992385 8.386126 5.467228
Ar 2.133993 4.960222 8.126943
Ar 5.831935 3.307826 4.206453
Ar 7.725609 1.629832 7.826569
Ar 1.013666 0.275742 9.770380
Ar 5.959712 3.857000 1.246110
Ar 4.701631 3.320129 6.970037
Ar 7.556503 2.431571 9.326182
Ar 5.812380 0.115050 0.809626
Ar 5.020214 7.129085 4.182050
10
Lattice="10.0 0 0 0 10.0 0 0 0 10.0" Properties=species:S:1:pos:R:3 pbc="T T T" Time=369
Ar 1.292734 2.560703 3.498888
Ar 3.586183 1.489813 8.830330
Ar 8.438753 1.779128 0.873673
Ar 5.205179 0.304792 6.448486
Ar 7.761852 8.082270 5.349729
Ar 5.513396 2.495848 1.578488
Ar 4.409919 8.282359 2.493557
Ar 3.143406 2.519657 2.985799
Ar 6.552447 1.611940 4.437550
Ar 3.911543 6.336882 1.473246
10
Lattice="10.0 0 0 0 10.0 0 0 0 10.0" Properties=species:S:1:pos:R:3 pbc="T T T" Time=370
Ar 8.593077 6.735289 1.530557
Ar 5.038372 8.019404 9.533718
Ar 1.045571 0.250430 7.540894
Ar 2.684755 8.979727 5.070357
Ar 4.510038 5.888798 0.929078
Ar 5.067079 1.134697 1.910866
Ar 4.118207 3.244588 8.017077
Ar 8.730305 2.607766 6.645460
Ar 7.292515 3.108830 8.065475
Ar 2.802879 5.544670 8.764433
10
Lattice="10.0 0 0 0 10.0 0 0 0 10.0" Properties=species:S:1:pos:R:3 pbc="T T T" Time=371
Ar 5.893396 0.909876 9.562232
Ar 6.490561 4.548995 0.237105
Ar 3.652390 8.721731 4.208114
Ar 0.164330 7.654661 3.692229
Ar 1.258224 3.695326 6.508427
Ar 4.620763 9.773546 2.243243
Ar 3.826496 8.206823 3.540600
Ar 4.317225 2.695875 0.305116
Ar 8.032584 4.605720 1.693398
Ar 1.694214 4.752452 6.055617
10
Lattice="10.0 0 0 0 10.0 0 0 0 10.0" Properties=species:S:1:pos:R:3 pbc="T T T" Time=372
Ar 3.193715 5.084463 7.593908
Ar 7.942751 1.078589 0.940491
Ar 6.259210 7.193032 0.875335
Ar 7.643905 6.329595 2.314100
Ar 8.006411 1.501851 2.087779
Ar 4.174446 8.412396 2.575620
Ar 3.534786 3.169057 9.064123
Ar 9.904154 2.783981 3.964763
Ar 8.772644 6.102614 5.321331
Ar 0.585546 3.960235 3.346799
10
Lattice="10.0 0 0 0 10.0 0 0 0 10.0" Properties=species:S:1:pos:R:3 pbc="T T T" Time=373
Ar 0.494037 9.259047 5.625581
Ar 9.394933 7.608184 1.643869
Ar 8.871453 5.648285 7.521757
Ar 5.123480 5.004529 0.935972
Ar 4.754514 9.308172 7.667219
Ar 3.728135 7.051254 2.907988
Ar 3.237646 8.147331 4.608455
Ar 5.491080 2.872088 7.624410
Ar 9.512712 7.599508 8.949272
Ar 9.476962 3.168222 0.637894
10
Lattice="10.0 0 0 0 10.0 0 0 0 10.0" Properties=species:S:1:pos:R:3 pbc="T T T" Time=374
Ar 7.794359 3.433635 3.657252
Ar 0.847103 4.137698 2.347025
Ar 1.483691 4.103541 4.168172
Ar 2.603061 3.679459 9.557850
Ar 1.502628 7.114574 3.246880
Ar 3.281824 5.690112 3.240357
Ar 2.940507 3.125601 0.152789
Ar 1.077952 2.960103 1.284107
Ar 0.252781 9.096402 2.577214
Ar 8.368434 2.376303 7.928940
10
Lattice="10.0 0 0 0 10.0 0 0 0 10.0" Properties=species:S:1:pos:R:3 pbc="T T T" Time=375
Ar 5.094679 7.608223 1.688923
Ar 2.299272 0.667211 3.050184
Ar 4.095927 2.558794 0.814584
Ar 0.082643 2.354389 8.179727
Ar 8.250742 4.920975 8.826541
Ar 2.835515 4.328964 3.572715
Ar 2.643366 8.103878 5.697134
Ar 6.664825 3.048118 4.943804
Ar 0.992851 0.593300 6.205157
Ar 7.259905 1.584384 5.219986
10
Lattice="10.0 0 0 0 10.0 0 0 0 10.0" Properties=species:S:1:pos:R:3 pbc="T T T" Time=376
Ar 2.394999 1.782811 9.720594
Ar 3.751422 7.196781 3.753372
Ar 6.708170 1.014044 7.461020
Ar 7.569660 1.017121 6.814704
Ar 4.998853 2.727379 4.406203
Ar 2.389215 2.967814 3.905072
Ar 2.338800 3.094355 1.228369
Ar 2.251697 3.136073 8.603458
Ar 1.732918 2.090201 9.833098
Ar 6.151376 0.792464 2.511032
10
Lattice="10.0 0 0 0 10.0 0 0 0 10.0" Properties=species:S:1:pos:R:3 pbc="T T T" Time=377
Ar 9.695320 5.957399 7.752265
Ar 5.203571 3.726351 4.456560
Ar 9.320412 9.469295 4.107456
Ar 5.056677 9.679853 5.449682
Ar 1.746964 0.533784 9.985865
Ar 1.942914 1.606664 4.237430
Ar 2.034236 8.084830 6.759604
Ar 7.838540 3.224099 2.263098
Ar 2.472986 3.587102 3.461038
Ar 5.042876 0.000474 9.802091
10
Lattice="10.0 0 0 0 10.0 0 0 0 10.0" Properties=species:S:1:pos:R:3 pbc="T T T" Time=378
Ar 6.792480 0.226267 5.818471
Ar 6.655720 0.255921 5.159748
Ar 1.932977 7.924546 0.753651
Ar 2.543373 8.342585 4.084902
Ar 8.495076 8.340189 5.565528
Ar 1.496612 0.245514 4.569790
Ar 1.729682 3.075336 2.290880
Ar 3.425396 3.312191 5.922668
Ar 3.416188 4.989626 7.054469
Ar 3.934376 9.208483 7.093149
10
Lattice="10.0 0 0 0 10.0 0 0 0 10.0" Properties=species:S:1:pos:R:3 pbc="T T T" Time=379
Ar 3.889641 4.495134 3.884678
Ar 8.107871 6.785491 5.862937
Ar 4.545541 6.379797 7.399845
Ar 0.030068 7.005316 2.720122
Ar 5.243188 6.146595 1.145192
Ar 1.050307 8.884356 4.902153
Ar 1.425128 8.065842 7.822155
Ar 9.012253 3.400283 9.582239
Ar 4.359392 6.392159 0.647897
Ar 2.825877 8.416491 4.384207
10
Lattice="10.0 0 0 0 10.0 0 0 0 10.0" Properties=species:S:1:pos:R:3 pbc="T T T" Time=380
Ar 0.828155 8.798403 1.186751
Ar 9.718665 3.280663 7.330258
Ar 7.158106 4.835048 4.046039
Ar 7.516768 5.668040 1.355339
Ar 1.991303 3.952996 6.724856
Ar 0.603998 7.523206 5.234518
Ar 1.120574 3.056349 3.353430
Ar 4.599110 3.488362 3.241800
Ar 5.302596 7.794705 4.241334
Ar 1.717378 7.624500 1.675267
10
Lattice="10.0 0 0 0 10.0 0 0 0 10.0" Properties=species:S:1:pos:R:3 pbc="T T T" Time=381
Ar 7.766669 3.101672 8.488825
Ar 1.329458 9.775836 8.797580
Ar 9.770670 3.290299 0.692233
Ar 5.003467 4.330763 9.990556
Ar 8.738589 1.759628 2.304052
Ar 0.157666 6.162062 5.566889
Ar 0.816020 8.046855 8.884706
Ar 0.185966 3.576441 6.901361
Ar 6.246630 9.197021 7.835238
Ar 0.608902 6.832503 8.966319
10
Lattice="10.0 0 0 0 10.0 0 0 0 10.0" Properties=species:S:1:pos:R:3 pbc="T T T" Time=382
Ar 4.705128 7.405012 5.790869
Ar 2.940248 6.271007 0.264904
Ar 2.383235 1.745550 7.338428
Ar 2.490167 2.993486 8.625771
Ar 5.485878 9.566261 7.883247
Ar 9.711334 4.800919 5.899261
Ar 0.511466 3.037361 4.415982
Ar 5.772823 3.664519 0.560922
Ar 7.190664 0.599338 1.429143
Ar 9.500480 6.040434 6.257401
10
Lattice="10.0 0 0 0 10.0 0 0 0 10.0" Properties=species:S:1:pos:R:3 pbc="T T T" Time=383
Ar 1.643586 1.708352 3.092912
Ar 4.551048 2.766213 1.732225
Ar 4.995803 0.200803 3.984622
Ar 9.976866 1.656210 7.260987
Ar 2.233166 7.372892 3.462446
Ar 9.265002 3.439776 6.231631
Ar 0.206941 8.028068 9.947244
Ar 1.359680 3.752596 4.220483
Ar 8.134698 2.001654 5.023048
Ar 8.392019 5.248129 3.548499
10
Lattice="10.0 0 0 0 10.0 0 0 0 10.0" Properties=species:S:1:pos:R:3 pbc="T T T" Time=384
Ar 8.582044 6.011692 0.394955
Ar 6.161847 9.261420 3.199547
Ar 7.608368 8.656031 0.630788
Ar 7.463567 0.318959 5.896229
Ar 8.980454 5.179522 9.041645
Ar 8.818704 2.078428 6.563944
Ar 9.902418 3.018772 5.478502
Ar 6.946537 3.840673 7.880043
Ar 9.078732 3.403970 8.616952
Ar 7.283521 4.456034 0.839658
10
Lattice="10.0 0 0 0 10.0 0 0 0 10.0" Properties=species:S:1:pos:R:3 pbc="T T T" Time=385
Ar 5.520502 0.315026 7.696994
Ar 7.772648 5.756628 4.666868
Ar 0.220934 7.111258 7.276956
Ar 4.950272 8.981700 4.531477
Ar 5.727743 2.986153 4.620844
Ar 8.372407 0.717095 6.896259
Ar 9.597895 8.009475 1.009761
Ar 2.533395 3.928755 1.539606
Ar 0.022760 4.806280 2.210851
Ar 6.175023 3.663940 8.130816
10
Lattice="10.0 0 0 0 10.0 0 0 0 10.0" Properties=species:S:1:pos:R:3 pbc="T T T" Time=386
Ar 2.458953 4.618405 4.999088
Ar 9.383447 2.251835 6.134189
Ar 2.833499 5.566486 3.923122
Ar 2.436974 7.644436 3.166723
Ar 2.475050 0.792784 0.199993
Ar 7.926091 9.355743 7.228593
Ar 9.293395 3.000197 6.540996
Ar 8.120244 4.016839 5.199164
Ar 0.966797 6.208557 5.804748
Ar 5.066514 2.871834 5.421981
10
Lattice="10.0 0 0 0 10.0 0 0 0 10.0" Properties=species:S:1:pos:R:3 pbc="T T T" Time=387
Ar 9.397403 8.921783 2.301182
Ar 0.994246 8.747042 7.601510
Ar 5.446065 4.021714 0.569288
Ar 9.923675 6.307172 1.801970
Ar 9.222356 8.599415 5.779143
Ar 7.479777 7.994392 7.560928
Ar 8.988895 7.990921 2.072232
Ar 3.707094 4.104921 8.858723
Ar 1.910833 7.610835 9.398645
Ar 3.958005 2.079729 2.713147
10
Lattice="10.0 0 0 0 10.0 0 0 0 10.0" Properties=species:S:1:pos:R:3 pbc="T T T" Time=388
Ar 6.335825 3.225078 9.603363
Ar 2.602016 5.267447 9.082533
Ar 8.058665 2.477014 7.215366
Ar 7.410375 4.969915 0.437213
Ar 5.969663 6.406045 1.358292
Ar 7.033463 6.633040 7.893262
Ar 8.687436 2.956435 7.589778
Ar 9.293933 4.193016 2.518269
Ar 2.854863 9.013117 2.992545
Ar 2.849496 1.287623 0.004312
10
Lattice="10.0 0 0 0 10.0 0 0 0 10.0" Properties=species:S:1:pos:R:3 pbc="T T T" Time=389
Ar 3.273851 7.527471 6.905323
Ar 4.209787 1.787855 0.563553
Ar 0.671268 0.932314 3.861446
Ar 4.897086 3.632637 9.072453
Ar 2.716969 4.212676 6.937437
Ar 6.587146 5.271688 8.225599
Ar 8.386362 7.922872 3.107550
Ar 4.880769 4.281110 6.177812
Ar 3.798897 0.415397 6.586451
Ar 1.740986 0.495517 7.295478
10
Lattice="10.0 0 0 0 10.0 0 0 0 10.0" Properties=species:S:1:pos:R:3 pbc="T T T" Time=390
Ar 0.211870 1.829857 4.207280
Ar 5.817557 8.308263 2.044573
Ar 3.299090 9.399216 0.516588
Ar 2.383806 2.295361 7.707692
Ar 9.464270 2.019313 2.516585
Ar 6.140829 3.910336 8.557934
Ar 8.070072 2.877706 8.616259
Ar 0.467605 4.369204 9.837356
Ar 4.742930 1.817677 0.180357
Ar 0.632476 9.703411 4.586645
10
Lattice="10.0 0 0 0 10.0 0 0 0 10.0" Properties=species:S:1:pos:R:3 pbc="T T T" Time=391
Ar 7.149890 6.132243 1.509238
Ar 7.425325 4.828668 3.525596
Ar 5.926912 7.866119 7.171728
Ar 9.870525 0.958086 6.342933
Ar 6.211563 9.825950 8.095736
Ar 5.694516 2.548988 8.890270
Ar 7.753782 7.832540 4.124969
Ar 6.054448 4.457298 3.496895
Ar 5.686973 3.219957 3.774259
Ar 9.523957 8.911305 1.877814
10
Lattice="10.0 0 0 0 10.0 0 0 0 10.0" Properties=species:S:1:pos:R:3 pbc="T T T" Time=392
Ar 4.087920 0.434634 8.811220
Ar 9.033095 1.349072 5.006619
Ar 8.554732 6.333020 3.826869
Ar 7.357245 9.620810 4.978173
Ar 2.958845 7.632590 3.674859
Ar 5.248195 1.187645 9.222604
Ar 7.437500 2.787369 9.633678
Ar 1.641291 4.545393 7.156434
Ar 6.631017 4.622238 7.368162
Ar 8.415439 8.119190 9.168986
10
Lattice="10.0 0 0 0 10.0 0 0 0 10.0" Properties=species:S:1:pos:R:3 pbc="T T T" Time=393
Ar 1.025950 4.737028 6.113197
Ar 0.641019 7.869517 6.487648
Ar 1.182550 4.799913 0.482006
Ar 4.843964 8.283534 3.613413
Ar 9.706127 5.439238 9.253987
Ar 4.801873 9.826303 9.554939
Ar 7.121217 7.742199 5.142388
Ar 7.228043 4.633647 0.815927
Ar 7.574997 6.024315 0.962111
Ar 7.306923 7.327075 6.460157
10
Lattice="10.0 0 0 0 10.0 0 0 0 10.0" Properties=species:S:1:pos:R:3 pbc="T T T" Time=394
Ar 7.963864 9.039348 3.415133
Ar 2.248946 4.389966 7.968678
Ar 3.810369 3.266805 7.137142
Ar 2.330680 6.946255 2.248653
Ar 6.453410 3.245885 4.833114
Ar 4.355665 8.465035 9.887315
Ar 6.804937 2.697029 0.651099
Ar 2.814794 4.721900 4.475420
Ar 8.518977 7.426392 4.556059
Ar 6.198406 6.534960 3.751328
10
Lattice="10.0 0 0 0 10.0 0 0 0 10.0" Properties=species:S:1:pos:R:3 pbc="T T T" Time=395
Ar 4.901778 3.341666 0.717069
Ar 3.856875 0.910416 9.449707
Ar 6.438200 1.733692 3.792289
Ar 9.817394 5.608976 0.883892
Ar 3.200682 1.052538 0.412230
Ar 3.909457 7.103766 0.219690
Ar 6.488635 7.651911 6.159650
Ar 8.401510 4.810013 8.134898
Ar 9.462990 8.828609 8.150022
Ar 5.089912 5.742794 1.042660
10
Lattice="10.0 0 0 0 10.0 0 0 0 10.0" Properties=species:S:1:pos:R:3 pbc="T T T" Time=396
Ar 1.839689 7.643997 8.018996
Ar 5.464793 7.430873 0.930743
Ar 9.066041 0.200572 0.447432
Ar 7.304108 4.271698 9.519130
Ar 9.947955 8.859190 5.991346
Ar 3.463249 5.742499 0.552065
Ar 6.172333 2.606792 1.668201
Ar 3.988226 4.898126 1.794376
Ar 0.407010 0.230816 1.743995
Ar 3.981414 4.950628 8.333991
10
Lattice="10.0 0 0 0 10.0 0 0 0 10.0" Properties=species:S:1:pos:R:3 pbc="T T T" Time=397
Ar 8.777601 1.946326 5.320923
Ar 7.072813 3.951307 2.411627
Ar 1.693882 8.667452 7.102574
Ar 4.790822 2.934420 8.154370
Ar 6.695124 6.665863 1.570612
Ar 3.017030 4.381244 0.884432
Ar 5.856031 7.561673 7.176752
Ar 9.574941 4.986239 5.453854
Ar 1.351030 1.633022 5.337968
Ar 2.872929 4.158452 5.625331
10
Lattice="10.0 0 0 0 10.0 0 0 0 10.0" Properties=species:S:1:pos:R:3 pbc="T T T" Time=398
Ar 5.715513 6.248655 2.622850
Ar 8.680836 0.471743 3.892511
Ar 4.321703 7.134331 3.757697
Ar 2.277537 1.597142 6.789608
Ar 3.442293 4.472537 7.149878
Ar 2.570780 3.020032 1.216740
Ar 5.539729 2.516553 2.685304
Ar 5.161683 5.074309 9.113396
Ar 2.295071 3.035229 8.931961
Ar 1.764445 3.366275 2.916666
10
Lattice="10.0 0 0 0 10.0 0 0 0 10.0" Properties=species:S:1:pos:R:3 pbc="T T T" Time=399
Ar 2.653422 0.550983 9.924778
Ar 0.288859 6.992178 5.373396
Ar 6.949523 5.601209 0.412820
Ar 9.764252 0.259864 5.424847
Ar 0.189462 2.279212 2.729143
Ar 2.124531 1.658821 1.549048
Ar 5.223427 7.471433 8.193855
Ar 0.748424 5.162379 2.772938
Ar 3.239114 4.437435 2.525954
Ar 0.655961 2.574098 0.208001
10
Lattice="10.0 0 0 0 10.0 0 0 0 10.0" Properties=species:S:1:pos:R:3 pbc="T T T" Time=400
Ar 9.591344 4.853304 7.226695
Ar 1.896882 3.512613 6.854280
Ar 9.577331 4.068096 7.067952
Ar 7.250968 8.922583 4.060082
Ar 6.936631 0.085890 8.308405
Ar 1.678292 0.297605 1.881341
Ar 4.907126 2.426312 3.702407
Ar 6.335167 5.250450 6.432482
Ar 4.183155 5.839641 6.119945
Ar 9.547467 1.781926 7.499357
10
Lattice="10.0 0 0 0 10.0 0 0 0 10.0" Properties=species:S:1:pos:R:3 pbc="T T T" Time=401
Ar 6.529271 9.155615 4.528599
Ar 3.504905 0.033048 8.335165
Ar 2.205139 2.534983 3.723086
Ar 4.737683 7.585303 2.695319
Ar 3.683794 7.892567 3.887672
Ar 1.232060 8.936391 2.213650
Ar 4.590824 7.381192 9.210958
Ar 1.921907 5.338523 0.092025
Ar 5.127199 7.241846 9.713936
Ar 8.438966 0.989760 4.790705
10
Lattice="10.0 0 0 0 10.0 0 0 0 10.0" Properties=species:S:1:pos:R:3 pbc="T T T" Time=402
Ar 3.465897 3.385130 1.815787
Ar 5.112935 6.553480 9.816050
Ar 4.834241 1.074674 0.392935
Ar 2.224398 6.248023 1.330555
Ar 0.430956 5.699244 9.466939
Ar 0.785828 7.575177 2.545958
Ar 4.274522 2.336072 4.719510
Ar 7.508654 5.426594 3.751570
Ar 6.071235 8.644054 3.307925
Ar 7.330464 0.197586 2.082053
10
Lattice="10.0 0 0 0 10.0 0 0 0 10.0" Properties=species:S:1:pos:R:3 pbc="T T T" Time=403
Ar 0.402522 7.614644 9.102975
Ar 6.720965 3.073914 1.296934
Ar 7.463344 9.614366 7.062785
Ar 9.711159 4.910728 9.965738
Ar 7.178071 3.505934 5.046261
Ar 0.339595 6.213963 2.878267
Ar 4.094024 7.255670 0.355407
Ar 3.095401 5.514665 7.411114
Ar 6.879470 0.081543 6.774567
Ar 6.221964 9.405413 9.373402
10
Lattice="10.0 0 0 0 10.0 0 0 0 10.0" Properties=species:S:1:pos:R:3 pbc="T T T" Time=404
Ar 7.339147 1.844159 6.390163
Ar 8.328996 9.594348 2.777817
Ar 0.092447 8.154058 3.732633
Ar 7.197926 3.573431 8.600920
Ar 3.925184 1.312624 0.625580
Ar 9.893358 4.852754 3.210579
Ar 3.913525 2.175269 5.991306
Ar 8.682148 5.602736 1.070659
Ar 7.687702 1.519027 0.241213
Ar 5.113468 8.613245 6.664749
10
Lattice="10.0 0 0 0 10.0 0 0 0 10.0" Properties=species:S:1:pos:R:3 pbc="T T T" Time=405
Ar 4.275773 6.073675 3.677350
Ar 9.937026 6.114782 4.258700
Ar 2.667598 6.736919 0.375847
Ar 4.684693 2.236132 7.236102
Ar 0.672297 9.119314 6.204899
Ar 9.447121 3.491545 3.542891
Ar 3.733027 7.094867 1.627205
Ar 4.268895 5.690806 4.730203
Ar 8.549886 2.913342 3.734489
Ar 4.004971 7.821076 3.956099
10
Lattice="10.0 0 0 0 10.0 0 0 0 10.0" Properties=species:S:1:pos:R:3 pbc="T T T" Time=406
Ar 1.212399 0.303190 0.964536
Ar 1.545053 2.635218 5.739582
Ar 5.242752 5.319778 7.019062
Ar 2.171459 0.898836 5.871283
Ar 7.419410 6.926004 1.784218
Ar 9.000886 2.130334 3.875207
Ar 3.552528 2.014465 7.263104
Ar 9.855641 5.778877 8.389745
Ar 9.412072 4.307656 7.227766
Ar 2.896473 7.028907 1.247449
10
Lattice="10.0 0 0 0 10.0 0 0 0 10.0" Properties=species:S:1:pos:R:3 pbc="T T T" Time=407
Ar 8.149032 4.532660 8.251734
Ar 3.153081 9.155656 7.220465
Ar 7.817869 3.902624 3.662235
Ar 9.658225 9.561539 4.506464
Ar 4.166523 4.732694 7.363538
Ar 8.554391 0.768955 4.207577
Ar 3.372063 6.934077 2.899036
Ar 5.442388 5.866946 2.049278
Ar 0.274515 5.702136 0.720988
Ar 1.787970 6.236783 8.538807
10
Lattice="10.0 0 0 0 10.0 0 0 0 10.0" Properties=species:S:1:pos:R:3 pbc="T T T" Time=408
Ar 5.085665 8.762131 5.538931
Ar 4.761097 5.676123 8.701344
Ar 0.392987 2.485471 0.305407
Ar 7.144997 8.224211 3.141643
Ar 0.913636 2.539384 2.942858
Ar 8.107897 9.407576 4.539946
Ar 3.191605 1.853692 8.534974
Ar 1.029140 5.955032 5.708824
Ar 1.136952 7.096599 4.214197
Ar 0.679466 5.444659 5.830165
10
Lattice="10.0 0 0 0 10.0 0 0 0 10.0" Properties=species:S:1:pos:R:3 pbc="T T T" Time=409
Ar 2.022298 2.991602 2.826128
Ar 6.369113 2.196591 0.182222
Ar 2.968105 1.068319 6.948579
Ar 4.631810 6.886837 1.776833
Ar 7.660749 0.346073 8.522177
Ar 7.661361 8.046241 4.872304
Ar 3.011145 6.773309 4.170914
Ar 6.615895 6.043117 9.368370
Ar 1.999389 8.491061 7.707407
Ar 9.570963 4.652536 3.121522
10
Lattice="10.0 0 0 0 10.0 0 0 0 10.0" Properties=species:S:1:pos:R:3 pbc="T T T" Time=410
Ar 8.958930 7.221073 0.113325
Ar 7.977130 8.717058 1.663101
Ar 5.543222 9.651166 3.591749
Ar 2.118616 5.549455 0.412012
Ar 4.407863 8.152763 4.101498
Ar 7.214832 6.684914 5.204672
Ar 2.830684 1.692926 9.806854
Ar 1.165426 4.617287 3.387865
Ar 2.861828 9.885544 1.200592
Ar 9.499682 5.374307 0.052955
10
Lattice="10.0 0 0 0 10.0 0 0 0 10.0" Properties=species:S:1:pos:R:3 pbc="T T T" Time=411
Ar 5.895563 1.450543 7.400523
Ar 9.585145 5.237527 3.143981
Ar 8.118339 8.234015 0.234919
Ar 9.605423 4.212073 9.047191
Ar 1.154978 5.959451 9.680819
Ar 6.768303 5.323588 5.537040
Ar 2.650223 6.612542 5.442795
Ar 5.714958 3.191458 7.407360
Ar 3.724267 1.280026 4.693777
Ar 9.428400 6.096078 6.984387
10
Lattice="10.0 0 0 0 10.0 0 0 0 10.0" Properties=species:S:1:pos:R:3 pbc="T T T" Time=412
Ar 2.832191 5.680032 4.687717
Ar 1.193159 1.757999 4.624864
Ar 0.693469 6.816881 6.878084
Ar 7.092233 2.874691 7.682370
Ar 7.902079 3.766123 5.260145
Ar 6.321775 3.962261 5.869409
Ar 2.469762 1.532165 1.078731
Ar 0.264489 1.765627 1.426856
Ar 4.586706 2.674502 8.186966
Ar 9.357122 6.817827 3.915819
10
Lattice="10.0 0 0 0 10.0 0 0 0 10.0" Properties=species:S:1:pos:R:3 pbc="T T T" Time=413
Ar 9.768824 9.909477 1.974911
Ar 2.801172 8.278471 6.105746
Ar 3.268598 5.399747 3.521248
Ar 4.579040 1.537305 6.317548
Ar 4.649185 1.572798 0.839473
Ar 5.875246 2.600935 6.201776
Ar 2.289301 6.451787 6.714667
Ar 4.814015 0.339841 5.446352
Ar 5.449144 4.068978 1.680155
Ar 9.285843 7.539577 0.847249
10
Lattice="10.0 0 0 0 10.0 0 0 0 10.0" Properties=species:S:1:pos:R:3 pbc="T T T" Time=414
Ar 6.705458 4.138921 9.262106
Ar 4.409186 4.798943 7.586630
Ar 5.843727 3.982613 0.164414
Ar 2.065852 0.199914 4.952735
Ar 1.396339 9.379468 6.418780
Ar 5.428666 1.239619 6.534155
Ar 2.108848 1.371409 2.350602
Ar 9.363533 8.914055 9.465849
Ar 6.311579 5.463453 5.173345
Ar 9.214565 8.261328 7.778678
10
Lattice="10.0 0 0 0 10.0 0 0 0 10.0" Properties=species:S:1:pos:R:3 pbc="T T T" Time=415
Ar 3.642092 8.368368 6.549301
Ar 6.017204 1.319431 9.067508
Ar 8.418856 2.565480 6.807580
Ar 9.552601 8.862580 3.587993
Ar 8.143493 7.186136 1.998087
Ar 4.982132 9.878342 6.866531
Ar 1.928391 6.291013 7.986543
Ar 3.913069 7.488175 3.485278
Ar 7.174015 6.857930 8.666535
Ar 9.143286 8.983076 4.710107
10
Lattice="10.0 0 0 0 10.0 0 0 0 10.0" Properties=species:S:1:pos:R:3 pbc="T T T" Time=416
Ar 0.578891 2.597845 3.836325
Ar 7.625220 7.839919 0.548385
Ar 0.993822 1.148316 3.450918
Ar 7.039364 7.525261 2.223223
Ar 4.890636 4.992788 7.577422
Ar 4.535598 8.517065 7.198907
Ar 1.747933 1.210618 3.622482
Ar 8.462608 6.062307 7.504740
Ar 8.036451 8.252407 2.159725
Ar 9.072003 9.704811 1.641503
10
Lattice="10.0 0 0 0 10.0 0 0 0 10.0" Properties=species:S:1:pos:R:3 pbc="T T T" Time=417
Ar 7.515680 6.827310 1.123348
Ar 9.233236 4.360409 2.029264
Ar 3.568789 9.731153 0.094255
Ar 4.526203 6.187921 0.858247
Ar 1.637777 2.799439 3.156755
Ar 4.089074 7.155799 7.531284
Ar 1.567475 6.130223 9.258422
Ar 3.012147 4.636439 1.524200
Ar 8.898887 9.646884 5.652914
Ar 9.000644 0.426568 8.573108
10
Lattice="10.0 0 0 0 10.0 0 0 0 10.0" Properties=species:S:1:pos:R:3 pbc="T T T" Time=418
Ar 4.452422 1.056888 8.410398
Ar 0.841250 0.880890 3.510060
Ar 6.256330 8.323202 6.763176
Ar 2.012837 4.850433 9.493318
Ar 8.384918 0.606089 8.736088
Ar 3.642550 5.794533 7.863661
Ar 1.274489 1.040503 4.868753
Ar 7.561686 3.210571 5.543661
Ar 9.761512 1.041490 9.146147
Ar 8.929303 1.148351 5.504704
10
Lattice="10.0 0 0 0 10.0 0 0 0 10.0" Properties=species:S:1:pos:R:3 pbc="T T T" Time=419
Ar 1.389165 5.286467 5.697447
Ar 2.449263 7.401372 4.990856
Ar 8.943871 6.915252 3.432097
Ar 9.499476 3.512951 8.128387
Ar 5.132058 8.412738 4.315423
Ar 3.196026 4.433267 8.196038
Ar 0.981501 5.950784 0.479083
Ar 2.111221 1.784698 9.563123
Ar 0.624137 2.436097 2.639379
Ar 8.857963 1.870134 2.436301
10
Lattice="10.0 0 0 0 10.0 0 0 0 10.0" Properties=species:S:1:pos:R:3 pbc="T T T" Time=420
Ar 8.325908 9.516046 2.984497
Ar 4.057234 3.921836 6.471511
Ar 1.631413 5.507301 0.101018
Ar 6.986112 2.175466 6.763459
Ar 1.879093 6.219353 9.894727
Ar 2.749504 3.072002 8.528411
Ar 0.688563 0.861081 6.089551
Ar 6.660754 0.358829 3.582585
Ar 1.486867 3.830736 6.132643
Ar 8.786619 2.591914 9.367899
10
Lattice="10.0 0 0 0 10.0 0 0 0 10.0" Properties=species:S:1:pos:R:3 pbc="T T T" Time=421
Ar 5.262649 3.745622 0.271547
Ar 5.665205 0.442304 7.952165
Ar 4.318954 4.099350 6.769939
Ar 4.472747 0.837982 5.398530
Ar 8.626130 4.025969 5.474031
Ar 2.302984 1.710738 8.860785
Ar 0.395625 5.771379 1.700019
Ar 1.210287 8.932960 7.602048
Ar 2.349625 5.225384 9.625910
Ar 8.715247 3.313686 6.299495
10
Lattice="10.0 0 0 0 10.0 0 0 0 10.0" Properties=species:S:1:pos:R:3 pbc="T T T" Time=422
Ar 2.199407 7.975188 7.558591
Ar 7.273180 6.962773 9.432817
Ar 7.039659 2.786744 3.411238
Ar 1.959382 9.500498 4.033602
Ar 5.340001 1.737241 1.080957
Ar 1.856463 0.349472 9.193162
Ar 0.102686 0.681675 7.310487
Ar 5.759803 7.507098 1.621516
Ar 3.212380 6.620034 3.119176
Ar 8.643876 4.035457 3.231091
10
Lattice="10.0 0 0 0 10.0 0 0 0 10.0" Properties=species:S:1:pos:R:3 pbc="T T T" Time=423
Ar 9.136167 2.204755 4.845636
Ar 8.881157 3.483242 0.913470
Ar 9.760365 1.474139 0.052536
Ar 9.446016 8.163013 2.668671
Ar 2.053890 9.448374 6.688045
Ar 1.409942 8.988205 9.525540
Ar 9.809747 5.591972 2.920957
Ar 0.309318 6.081237 5.640985
Ar 4.075134 8.014683 6.612441
Ar 8.572487 4.757368 0.162526
10
Lattice="10.0 0 0 0 10.0 0 0 0 10.0" Properties=species:S:1:pos:R:3 pbc="T T T" Time=424
Ar 6.072926 6.434320 2.132680
Ar 0.489134 0.003710 2.394121
Ar 2.481058 0.161524 6.693836
Ar 6.932651 6.825529 1.303741
Ar 8.767779 7.159507 2.295132
Ar 0.963423 7.626940 9.857920
Ar 9.516806 0.502270 8.531424
Ar 4.858833 4.655376 9.660454
Ar 4.937889 9.409332 0.105705
Ar 8.501110 5.479289 7.093959
10
Lattice="10.0 0 0 0 10.0 0 0 0 10.0" Properties=species:S:1:pos:R:3 pbc="T T T" Time=425
Ar 3.009686 0.663884 9.419724
Ar 2.097132 6.524089 3.874829
Ar 5.201753 8.848904 3.335135
Ar 4.419284 5.488048 9.938810
Ar 5.481665 4.870642 7.902218
Ar 0.516904 6.265673 0.190302
Ar 9.223865 5.412565 4.141891
Ar 9.408348 3.229515 3.679926
Ar 5.800646 0.803979 3.598970
Ar 8.429711 6.201303 4.025337
10
Lattice="10.0 0 0 0 10.0 0 0 0 10.0" Properties=species:S:1:pos:R:3 pbc="T T T" Time=426
Ar 9.946281 4.893375 6.706926
Ar 3.705130 3.044469 5.355537
Ar 7.922449 7.536285 9.976433
Ar 1.906071 4.150639 8.573717
Ar 2.195562 2.581779 3.509310
Ar 0.070386 4.904406 0.522683
Ar 8.930923 0.322861 9.752358
Ar 3.957862 1.803653 7.699396
Ar 6.663404 2.198626 7.092235
Ar 8.358311 6.923317 0.956714
10
Lattice="10.0 0 0 0 10.0 0 0 0 10.0" Properties=species:S:1:pos:R:3 pbc="T T T" Time=427
Ar 6.882876 9.122865 3.994128
Ar 5.313129 9.564849 6.836246
Ar 0.643140 6.223652 6.617729
Ar 9.392855 2.813231 7.208628
Ar 8.909462 0.292915 9.116398
Ar 9.623868 3.543139 0.855063
Ar 8.637992 5.233153 5.362828
Ar 8.507378 0.377783 1.718865
Ar 7.526166 3.593287 0.585501
Ar 8.286900 7.645343 7.888090
10
Lattice="10.0 0 0 0 10.0 0 0 0 10.0" Properties=species:S:1:pos:R:3 pbc="T T T" Time=428
Ar 3.819469 3.352355 1.281328
Ar 6.921131 6.085231 8.316955
Ar 3.363746 4.911137 3.258836
Ar 6.879641 1.475824 5.843539
Ar 5.623359 8.004050 4.723482
Ar 9.177350 2.181870 1.187445
Ar 8.345061 0.143447 0.973298
Ar 3.056892 8.951910 5.738337
Ar 8.388929 4.987948 4.078767
Ar 8.215572 8.367252 4.819656
10
Lattice="10.0 0 0 0 10.0 0 0 0 10.0" Properties=species:S:1:pos:R:3 pbc="T T T" Time=429
Ar 0.756062 7.581846 8.568529
Ar 8.529132 2.605613 9.797665
Ar 6.084356 3.598622 9.899943
Ar 4.366427 0.138415 4.478450
Ar 2.337257 5.715185 0.330564
Ar 8.730844 0.820602 1.519829
Ar 8.052127 5.053739 6.583766
Ar 7.606406 7.526038 9.757811
Ar 9.251681 6.382610 7.572032
Ar 8.144242 9.089161 1.751223
10
Lattice="10.0 0 0 0 10.0 0 0 0 10.0" Properties=species:S:1:pos:R:3 pbc="T T T" Time=430
Ar 7.692656 1.811334 5.855727
Ar 0.137133 9.125995 1.278375
Ar 8.804965 2.286110 6.541054
Ar 1.853214 8.801007 3.113361
Ar 9.051153 3.426319 5.937646
Ar 8.284343 9.459342 1.852213
Ar 7.759190 9.964024 2.194233
Ar 2.155919 6.100166 3.777285
Ar 0.114432 7.777272 1.065297
Ar 8.072916 9.811070 8.682789
10
Lattice="10.0 0 0 0 10.0 0 0 0 10.0" Properties=species:S:1:pos:R:3 pbc="T T T" Time=431
Ar 4.629257 6.040829 3.142929
Ar 1.745136 5.646379 2.759082
Ar 1.525571 0.973599 3.182164
Ar 9.340000 7.463599 1.748272
Ar 5.765050 1.137452 1.544728
Ar 7.837851 8.098109 2.184596
Ar 7.466243 4.874298 7.804692
Ar 6.705431 4.674292 7.796758
Ar 0.977186 9.171938 4.558563
Ar 8.001580 0.532951 5.614362
10
Lattice="10.0 0 0 0 10.0 0 0 0 10.0" Properties=species:S:1:pos:R:3 pbc="T T T" Time=432
Ar 1.565712 0.270255 0.430046
Ar 3.353161 2.166945 4.239810
Ar 4.246275 9.660958 9.823459
Ar 6.826790 6.126193 0.383187
Ar 2.478996 8.848784 7.151711
Ar 7.345665 6.780774 2.546733
Ar 7.218968 9.740680 3.385407
Ar 1.254943 3.248417 1.816231
Ar 1.839938 0.566416 8.051798
Ar 7.930243 1.254832 2.545934
10
Lattice="10.0 0 0 0 10.0 0 0 0 10.0" Properties=species:S:1:pos:R:3 pbc="T T T" Time=433
Ar 8.502168 4.499682 7.717162
Ar 4.961186 8.687509 5.720537
Ar 6.966981 8.348322 6.464751
Ar 4.313629 4.788766 9.018087
Ar 9.192941 6.560116 2.758694
Ar 6.853429 5.463460 2.908884
Ar 6.879142 4.582732 8.965156
Ar 5.897005 1.846871 5.836670
Ar 2.702689 1.960889 1.545037
Ar 7.858907 1.976713 9.477506
10
Lattice="10.0 0 0 0 10.0 0 0 0 10.0" Properties=species:S:1:pos:R:3 pbc="T T T" Time=434
Ar 5.438621 8.729107 5.004284
Ar 6.569211 5.208074 7.201265
Ar 9.687690 7.035686 3.106043
Ar 1.800466 3.451337 7.652980
Ar 5.906891 4.271435 8.365669
Ar 6.361195 4.146147 3.271041
Ar 6.539306 9.424763 4.544918
Ar 0.539066 0.445327 9.857108
Ar 3.565435 3.355376 5.038277
Ar 7.787580 2.698617 6.409066
10
Lattice="10.0 0 0 0 10.0 0 0 0 10.0" Properties=species:S:1:pos:R:3 pbc="T T T" Time=435
Ar 2.375087 2.958533 2.291395
Ar 8.177226 1.728639 8.681989
Ar 2.408408 5.723048 9.747338
Ar 9.287300 2.113909 6.287873
Ar 2.620844 1.982754 3.972644
Ar 5.868958 2.828832 3.633198
Ar 6.199460 4.266795 0.124689
Ar 5.181128 9.043783 3.877547
Ar 4.428181 4.749863 8.531518
Ar 7.716255 3.420518 3.340627
10
Lattice="10.0 0 0 0 10.0 0 0 0 10.0" Properties=species:S:1:pos:R:3 pbc="T T T" Time=436
Ar 9.311411 7.187869 9.578567
Ar 9.785268 8.249246 0.162665
Ar 5.129126 4.410410 6.388634
Ar 6.774134 0.776480 4.922767
Ar 9.334769 9.694035 9.579669
Ar 5.376721 1.511518 3.995355
Ar 5.859756 9.108916 5.704401
Ar 9.823190 7.642239 7.897985
Ar 5.290927 6.144350 2.024758
Ar 7.644930 4.142419 0.272186
10
Lattice="10.0 0 0 0 10.0 0 0 0 10.0" Properties=species:S:1:pos:R:3 pbc="T T T" Time=437
Ar 6.247732 1.417215 6.865720
Ar 1.393310 4.769852 1.643343
Ar 7.849841 3.097774 3.029931
Ar 4.260969 9.439052 3.557659
Ar 6.048696 7.405305 5.186712
Ar 4.884465 0.194198 4.357515
Ar 5.520055 3.951038 1.284115
Ar 4.465252 6.240694 1.918424
Ar 6.153672 7.538837 5.517993
Ar 7.573625 4.864325 7.203743
10
Lattice="10.0 0 0 0 10.0 0 0 0 10.0" Properties=species:S:1:pos:R:3 pbc="T T T" Time=438
Ar 3.183962 5.646367 4.152805
Ar 3.001453 1.290577 3.124153
Ar 0.570556 1.785137 9.671228
Ar 1.747836 8.101622 2.192563
Ar 2.762602 5.116646 0.793730
Ar 4.392184 8.876891 4.719657
Ar 5.180348 8.793146 6.863836
Ar 9.107324 4.839155 5.938823
Ar 7.016417 8.933323 9.011228
Ar 7.502320 5.586231 4.135300
10
Lattice="10.0 0 0 0 10.0 0 0 0 10.0" Properties=species:S:1:pos:R:3 pbc="T T T" Time=439
Ar 0.120192 9.875519 1.439891
Ar 4.609596 7.811302 4.604963
Ar 3.291272 0.472501 6.312525
Ar 9.234585 6.764052 0.827315
Ar 1.699896 4.381458 2.857878
Ar 3.900019 7.559727 5.081949
Ar 4.840641 3.635252 2.443555
Ar 3.749395 3.437619 9.959222
Ar 5.655776 8.774336 6.047334
Ar 7.431016 6.308137 1.066857
10
Lattice="10.0 0 0 0 10.0 0 0 0 10.0" Properties=species:S:1:pos:R:3 pbc="T T T" Time=440
Ar 7.056422 4.104670 8.726978
Ar 6.217738 4.332028 6.085772
Ar 6.011988 9.159864 2.953823
Ar 6.721333 5.426483 9.462067
Ar 0.637189 3.646271 4.922025
Ar 3.407852 6.242564 5.444234
Ar 4.500936 8.477358 8.023280
Ar 8.391469 2.036081 3.979624
Ar 4.295135 8.615349 3.083442
Ar 7.359709 7.030044 7.998412
10
Lattice="10.0 0 0 0 10.0 0 0 0 10.0" Properties=species:S:1:pos:R:3 pbc="T T T" Time=441
Ar 3.992653 8.333821 6.014065
Ar 7.813077 0.848209 7.575172
Ar 8.732703 7.847230 9.595121
Ar 4.208109 4.088919 8.096815
Ar 9.574482 2.911083 6.986173
Ar 2.928476 4.929933 5.797915
Ar 4.161232 3.319463 3.603007
Ar 3.033542 0.634543 8.000023
Ar 2.934509 8.456372 0.119564
Ar 7.288375 7.751944 4.929970
10
Lattice="10.0 0 0 0 10.0 0 0 0 10.0" Properties=species:S:1:pos:R:3 pbc="T T T" Time=442
Ar 0.928904 2.562890 3.301108
Ar 9.408415 7.364390 9.064569
Ar 1.453452 6.534605 6.236416
Ar 1.694861 2.751432 6.731615
Ar 8.511777 2.175897 9.050321
Ar 2.449100 3.617302 6.151596
Ar 3.821527 8.161569 9.182734
Ar 7.675614 9.233004 2.020422
Ar 1.573849 8.297384 7.155688
Ar 7.217045 8.473851 1.861523
10
Lattice="10.0 0 0 0 10.0 0 0 0 10.0" Properties=species:S:1:pos:R:3 pbc="T T T" Time=443
Ar 7.865156 6.791959 0.588151
Ar 1.003752 3.880569 0.553966
Ar 4.174201 5.221981 2.877712
Ar 9.181614 1.413945 5.366415
Ar 7.449072 1.440711 1.114469
Ar 1.969722 2.304672 6.505276
Ar 3.481823 3.003675 4.762461
Ar 2.317685 7.831467 6.040821
Ar 0.213189 8.138396 4.191813
Ar 7.145715 9.195757 8.793076
10
Lattice="10.0 0 0 0 10.0 0 0 0 10.0" Properties=species:S:1:pos:R:3 pbc="T T T" Time=444
Ar 4.801407 1.021027 7.875193
Ar 2.599088 0.396749 2.043364
Ar 6.894949 3.909341 9.518999
Ar 6.668233 0.076303 4.001320
Ar 6.386366 0.705526 3.178617
Ar 1.490480 0.992197 6.858853
Ar 3.142120 7.845780 0.342188
Ar 6.952821 6.418447 0.058817
Ar 8.852530 7.979425 1.227946
Ar 7.081320 9.929146 5.727032
10
Lattice="10.0 0 0 0 10.0 0 0 0 10.0" Properties=species:S:1:pos:R:3 pbc="T T T" Time=445
Ar 1.737659 5.250095 5.162236
Ar 4.194424 6.912928 3.532762
Ar 9.615696 2.596702 6.160285
Ar 4.154851 8.738660 2.636225
Ar 5.323661 9.970341 5.242765
Ar 1.011235 9.679720 7.212433
Ar 2.802420 2.687886 5.921912
Ar 1.587958 5.005426 4.076814
Ar 7.491869 7.820454 8.264077
Ar 7.016926 0.662535 2.660988
10
Lattice="10.0 0 0 0 10.0 0 0 0 10.0" Properties=species:S:1:pos:R:3 pbc="T T T" Time=446
Ar 8.673910 9.479163 2.449279
Ar 5.789760 3.429108 5.022161
Ar 2.336444 1.284060 2.801570
Ar 1.641342 7.401285 1.270747
Ar 4.261074 9.234893 7.307256
Ar 0.531990 8.367243 7.566014
Ar 2.462720 7.529992 1.501635
Ar 6.223094 3.592408 8.094810
Ar 6.131211 7.661483 5.300209
Ar 6.952541 1.395920 9.594983
10
Lattice="10.0 0 0 0 10.0 0 0 0 10.0" Properties=species:S:1:pos:R:3 pbc="T T T" Time=447
Ar 5.610161 3.708233 9.736323
Ar 7.385096 9.945273 6.511566
Ar 5.057191 9.971418 9.442856
Ar 9.127832 6.063923 9.905261
Ar 3.198486 8.499445 9.371748
Ar 0.052745 7.054765 7.919595
Ar 2.123021 2.372096 7.081360
Ar 0.858229 2.179390 2.112805
Ar 4.770552 7.502513 2.336341
Ar 6.888157 2.129305 6.528978
10
Lattice="10.0 0 0 0 10.0 0 0 0 10.0" Properties=species:S:1:pos:R:3 pbc="T T T" Time=448
Ar 2.546411 7.937302 7.023367
Ar 8.980433 6.461439 8.000970
Ar 7.777938 8.658776 6.084141
Ar 6.638994 4.730428 8.546710
Ar 2.135899 7.763998 1.436241
Ar 9.573499 5.742288 8.273176
Ar 1.758650 7.210334 2.654149
Ar 5.493364 0.766373 6.130800
Ar 3.409893 7.343542 9.372473
Ar 6.823774 2.862689 3.462973
10
Lattice="10.0 0 0 0 10.0 0 0 0 10.0" Properties=species:S:1:pos:R:3 pbc="T T T" Time=449
Ar 9.482662 2.166372 4.310411
Ar 0.575772 2.977596 9.490374
Ar 0.498689 7.346138 2.725427
Ar 4.150154 3.396930 7.188164
Ar 1.073306 7.028548 3.500733
Ar 9.094256 4.429812 8.626752
Ar 1.394279 2.048571 8.226938
Ar 0.128498 9.353356 0.148795
Ar 2.049235 7.184571 6.408605
Ar 6.759388 3.596081 0.396969
10
Lattice="10.0 0 0 0 10.0 0 0 0 10.0" Properties=species:S:1:pos:R:3 pbc="T T T" Time=450
Ar 6.418912 6.395442 1.597453
Ar 2.173605 9.490731 0.980922
Ar 3.219440 6.033499 9.366713
Ar 1.661313 2.063431 5.829618
Ar 0.010759 6.293167 5.565077
Ar 8.612520 3.120360 8.979184
Ar 1.029861 6.886740 3.799879
Ar 4.763632 7.940340 4.166790
Ar 0.688580 7.025599 3.444736
Ar 6.695003 4.329473 7.330964
10
Lattice="10.0 0 0 0 10.0 0 0 0 10.0" Properties=species:S:1:pos:R:3 pbc="T T T" Time=451
Ar 3.355161 0.624513 8.884494
Ar 3.771424 6.003882 2.471503
Ar 5.941187 4.720311 6.009341
Ar 9.172472 0.729933 4.471071
Ar 8.947217 5.558336 7.628078
Ar 8.130779 1.810913 9.331612
Ar 0.665463 1.724887 9.372790
Ar 9.398766 6.527323 8.184784
Ar 9.327926 6.866627 0.480868
Ar 6.630617 5.062865 4.264960
10
Lattice="10.0 0 0 0 10.0 0 0 0 10.0" Properties=species:S:1:pos:R:3 pbc="T T T" Time=452
Ar 0.291411 4.853583 6.171535
Ar 5.369243 2.517034 3.962084
Ar 8.662933 3.407122 2.651969
Ar 6.683631 9.396434 3.112525
Ar 7.883666 4.823500 9.691095
Ar 7.649040 0.501466 9.684042
Ar 1.083101 4.382327 4.947163
Ar 4.033900 5.114307 2.202780
Ar 7.185241 8.888366 7.515523
Ar 6.566230 5.796258 1.198955
10
Lattice="10.0 0 0 0 10.0 0 0 0 10.0" Properties=species:S:1:pos:R:3 pbc="T T T" Time=453
Ar 7.227662 9.082653 3.458576
Ar 6.967061 9.030186 5.452665
Ar 1.384670 2.093928 9.294620
Ar 4.194790 8.062935 1.753978
Ar 6.820032 4.088482 1.754007
Ar 7.167297 9.192018 0.036472
Ar 1.500741 7.039767 0.521537
Ar 8.669118 3.701472 6.220872
Ar 5.042557 0.910107 4.550185
Ar 6.501853 6.529655 8.132927
10
Lattice="10.0 0 0 0 10.0 0 0 0 10.0" Properties=species:S:1:pos:R:3 pbc="T T T" Time=454
Ar 4.163861 3.311755 0.745699
Ar 8.564880 5.543337 6.943246
Ar 4.106407 0.780735 5.937271
Ar 1.705950 6.729436 0.395432
Ar 5.756402 3.353461 3.816912
Ar 6.685554 7.882572 0.388903
Ar 1.918435 9.697176 6.095829
Ar 3.304335 2.288636 0.238966
Ar 2.899872 2.931847 1.584846
Ar 6.437471 7.263057 5.066904
10
Lattice="10.0 0 0 0 10.0 0 0 0 10.0" Properties=species:S:1:pos:R:3 pbc="T T T" Time=455
Ar 1.100062 7.540856 8.032804
Ar 0.162697 2.056488 8.433844
Ar 6.828144 9.467541 2.579922
Ar 9.217109 5.395937 9.036886
Ar 4.692773 2.618439 5.879818
Ar 6.203811 6.573126 0.741333
Ar 2.336128 2.354585 1.670120
Ar 7.939552 0.875801 4.257059
Ar 0.757186 4.953588 8.619507
Ar 6.373089 7.996458 2.000881
10
Lattice="10.0 0 0 0 10.0 0 0 0 10.0" Properties=species:S:1:pos:R:3 pbc="T T T" Time=456
Ar 8.036427 1.770088 5.319915
Ar 1.760515 8.569638 9.924443
Ar 9.549886 8.154349 9.222573
Ar 6.728268 4.062438 7.678340
Ar 3.629144 1.883418 7.942724
Ar 5.722069 5.263680 1.093764
Ar 2.753817 5.011991 7.244412
Ar 2.574704 9.462817 8.275014
Ar 8.614400 6.975348 5.654300
Ar 6.308707 8.729859 8.934858
10
Lattice="10.0 0 0 0 10.0 0 0 0 10.0" Properties=species:S:1:pos:R:3 pbc="T T T" Time=457
Ar 4.972794 5.999322 2.607024
Ar 3.358333 5.082786 1.415042
Ar 2.271643 6.841214 5.865244
Ar 4.239368 2.728956 6.319810
Ar 2.565515 1.148397 0.005630
Ar 5.240324 3.954216 1.446178
Ar 3.171506 7.669398 2.818704
Ar 7.209858 8.049835 2.292972
Ar 6.471674 8.997090 2.689078
Ar 6.244308 9.463219 5.868828
10
Lattice="10.0 0 0 0 10.0 0 0 0 10.0" Properties=species:S:1:pos:R:3 pbc="T T T" Time=458
Ar 1.909160 0.228556 9.894133
Ar 4.956149 1.595929 2.905655
Ar 4.993395 5.528077 2.507914
Ar 1.750468 1.395474 4.961280
Ar 1.501887 0.413378 2.068535
Ar 4.758579 2.644751 1.798592
Ar 3.589195 0.326805 8.392996
Ar 1.845017 6.636858 6.310918
Ar 4.328947 1.018832 9.723856
Ar 6.179910 0.196580 2.802798
10
Lattice="10.0 0 0 0 10.0 0 0 0 10.0" Properties=species:S:1:pos:R:3 pbc="T T T" Time=459
Ar 8.845535 4.457795 7.181249
Ar 6.553951 8.109072 4.396262
Ar 7.715147 4.214941 9.150585
Ar 9.261568 0.061992 3.602750
Ar 0.438259 9.678358 4.131441
Ar 4.276843 1.335277 2.151004
Ar 4.006880 2.984216 3.967288
Ar 6.480316 5.223705 0.328789
Ar 2.186083 3.040751 6.758708
Ar 6.115511 0.929941 9.736769
10
Lattice="10.0 0 0 0 10.0 0 0 0 10.0" Properties=species:S:1:pos:R:3 pbc="T T T" Time=460
Ar 5.781902 8.687032 4.468363
Ar 8.151747 4.622168 5.886944
Ar 0.436899 2.901806 5.793256
Ar 6.772667 8.728510 2.244221
Ar 9.374628 8.943339 6.194355
Ar 3.795094 0.025872 2.503345
Ar 4.424545 5.641602 9.541528
Ar 1.115614 3.810551 4.346660
Ar 0.043248 5.062695 3.793603
Ar 6.051133 1.663279 6.670738
10
Lattice="10.0 0 0 0 10.0 0 0 0 10.0" Properties=species:S:1:pos:R:3 pbc="T T T" Time=461
Ar 2.718273 2.916270 1.755469
Ar 9.749542 1.135265 7.377626
Ar 3.158660 1.588660 2.435922
Ar 4.283593 7.395085 0.885614
Ar 8.311172 8.208263 8.257347
Ar 3.313345 8.716465 2.855684
Ar 4.842210 8.298992 5.115770
Ar 5.750901 2.397407 8.364543
Ar 7.900413 7.084639 0.828500
Ar 5.986755 2.396616 3.604707
10
Lattice="10.0 0 0 0 10.0 0 0 0 10.0" Properties=species:S:1:pos:R:3 pbc="T T T" Time=462
Ar 9.654642 7.145507 9.042581
Ar 1.347335 7.648362 8.868309
Ar 5.880410 0.275497 9.078613
Ar 1.794521 6.061660 9.527003
Ar 7.247715 7.473187 0.320339
Ar 2.831595 7.407058 3.208022
Ar 5.259875 0.956381 0.690013
Ar 0.386228 0.984246 2.382415
Ar 5.757551 9.106618 7.863379
Ar 5.922377 3.129954 0.538677
10
Lattice="10.0 0 0 0 10.0 0 0 0 10.0" Properties=species:S:1:pos:R:3 pbc="T T T" Time=463
Ar 6.590984 1.374824 6.329651
Ar 2.945128 4.161460 0.358992
Ar 8.602186 8.962256 5.721345
Ar 9.305451 4.728234 8.168388
Ar 6.184259 6.738111 2.383330
Ar 2.349843 6.097652 3.560361
Ar 5.677541 3.613770 6.264257
Ar 5.021555 9.571085 6.400287
Ar 3.614688 1.128595 4.898260
Ar 5.858000 3.863291 7.472646
10
Lattice="10.0 0 0 0 10.0 0 0 0 10.0" Properties=species:S:1:pos:R:3 pbc="T T T" Time=464
Ar 3.527286 5.604131 3.616724
Ar 4.542950 0.674605 1.849656
Ar 1.323976 7.649041 2.364091
Ar 6.816394 3.394769 6.809790
Ar 5.120802 6.003035 4.446322
Ar 1.868090 4.788245 3.912700
Ar 6.095194 6.271164 1.838528
Ar 9.656883 8.157924 0.418159
Ar 1.471821 3.150534 1.933100
Ar 5.793625 4.596637 4.406615
10
Lattice="10.0 0 0 0 10.0 0 0 0 10.0" Properties=species:S:1:pos:R:3 pbc="T T T" Time=465
Ar 0.463593 9.833436 0.903796
Ar 6.140772 7.187750 3.340319
Ar 4.045766 6.335826 9.006836
Ar 4.327338 2.061304 5.451192
Ar 4.057344 5.267958 6.509314
Ar 1.386338 3.478839 4.265039
Ar 6.512812 8.928514 7.412566
Ar 4.292208 6.744756 4.436033
Ar 9.328952 5.172475 8.967938
Ar 5.729284 5.330031 1.340818
10
Lattice="10.0 0 0 0 10.0 0 0 0 10.0" Properties=species:S:1:pos:R:3 pbc="T T T" Time=466
Ar 7.399895 4.062748 8.190850
Ar 7.738594 3.700895 4.830983
Ar 6.767558 5.022612 5.649583
Ar 1.838282 0.727839 4.092595
Ar 2.993874 4.532972 8.572324
Ar 0.904560 2.169422 4.617386
Ar 6.930430 1.585865 2.986602
Ar 8.927531 5.331590 8.453905
Ar 7.186082 7.194414 6.002774
Ar 5.664985 6.063342 8.275018
10
Lattice="10.0 0 0 0 10.0 0 0 0 10.0" Properties=species:S:1:pos:R:3 pbc="T T T" Time=467
Ar 4.336197 8.292060 5.477903
Ar 9.336424 0.214043 6.321644
Ar 9.489349 3.709398 2.292331
Ar 9.349226 9.394372 2.733998
Ar 1.930404 3.797983 0.635336
Ar 0.422782 0.860005 4.969732
Ar 7.348049 4.243216 8.560638
Ar 3.562846 3.918423 2.471779
Ar 5.043212 9.216353 3.037610
Ar 5.600686 6.796651 5.209217
10
Lattice="10.0 0 0 0 10.0 0 0 0 10.0" Properties=species:S:1:pos:R:3 pbc="T T T" Time=468
Ar 1.272488 2.521358 2.764956
Ar 0.934272 6.727169 7.812289
Ar 2.211121 2.396201 8.935090
Ar 6.860191 8.060876 1.375390
Ar 0.866933 3.062994 2.698348
Ar 9.940985 9.550617 5.322089
Ar 7.765667 6.900567 4.134674
Ar 8.198176 2.505268 6.489656
Ar 2.900343 1.238300 0.072445
Ar 5.536384 7.529962 2.143419
10
Lattice="10.0 0 0 0 10.0 0 0 0 10.0" Properties=species:S:1:pos:R:3 pbc="T T T" Time=469
Ar 8.208766 6.750670 0.052014
Ar 2.532102 3.240284 9.302958
Ar 4.932891 1.083003 5.577850
Ar 4.371154 6.727379 0.016781
Ar 9.803461 2.328004 4.761355
Ar 9.459206 8.241241 5.674425
Ar 8.183285 9.557917 9.708709
Ar 2.833509 1.092113 0.507536
Ar 0.757476 3.260249 7.107279
Ar 5.472096 8.263258 9.077618
10
Lattice="10.0 0 0 0 10.0 0 0 0 10.0" Properties=species:S:1:pos:R:3 pbc="T T T" Time=470
Ar 4.734884 1.527768 7.271707
Ar 4.129931 9.753398 0.793627
Ar 7.654646 9.769833 2.220582
Ar 1.882177 5.393906 8.658136
Ar 9.150147 1.045230 6.891728
Ar 8.977428 6.931865 6.026761
Ar 8.600904 2.215266 5.282745
Ar 7.468842 9.678958 4.525417
Ar 8.614625 5.282170 4.142139
Ar 5.407747 8.996531 6.011851
10
Lattice="10.0 0 0 0 10.0 0 0 0 10.0" Properties=species:S:1:pos:R:3 pbc="T T T" Time=471
Ar 1.261003 6.304863 4.491401
Ar 5.727762 6.266517 2.284295
Ar 0.376400 8.456664 8.863314
Ar 9.393194 4.060424 7.299497
Ar 8.496833 9.762456 9.022098
Ar 8.495649 5.622489 6.379097
Ar 9.018524 4.872618 0.856781
Ar 2.104175 8.265800 8.543299
Ar 6.471774 7.304092 1.176999
Ar 5.343403 9.729812 2.946078
10
Lattice="10.0 0 0 0 10.0 0 0 0 10.0" Properties=species:S:1:pos:R:3 pbc="T T T" Time=472
Ar 7.787122 1.081959 1.711096
Ar 7.325592 2.779635 3.774963
Ar 3.098155 7.143494 5.506039
Ar 6.904210 2.726943 5.940858
Ar 7.843523 8.479673 1.152481
Ar 8.013872 4.313115 6.731436
Ar 9.436140 7.529979 6.430807
Ar 6.739509 6.852641 2.561186
Ar 4.328922 9.326012 8.211857
Ar 5.279058 0.463091 9.880305
10
Lattice="10.0 0 0 0 10.0 0 0 0 10.0" Properties=species:S:1:pos:R:3 pbc="T T T" Time=473
Ar 4.313241 5.859056 8.930790
Ar 8.923397 9.292718 5.265667
Ar 5.819876 5.830325 2.148771
Ar 4.415234 1.393447 4.582227
Ar 7.190207 7.196895 3.282863
Ar 7.532086 3.003753 7.083767
Ar 9.853757 0.187339 2.004833
Ar 1.374883 5.439478 6.579065
Ar 2.186095 1.347966 5.246678
Ar 5.214712 1.196372 6.814534
10
Lattice="10.0 0 0 0 10.0 0 0 0 10.0" Properties=species:S:1:pos:R:3 pbc="T T T" Time=474
Ar 0.839360 0.636154 6.150484
Ar 0.521204 5.805804 6.756364
Ar 8.541596 4.517156 8.791503
Ar 1.926249 0.059942 3.223599
Ar 6.536893 5.914117 5.413243
Ar 7.050308 1.694402 7.436103
Ar 0.271374 2.844700 7.578859
Ar 6.010255 4.026311 0.596947
Ar 0.043264 3.369915 2.281493
Ar 5.150369 1.929656 3.748768
10
Lattice="10.0 0 0 0 10.0 0 0 0 10.0" Properties=species:S:1:pos:R:3 pbc="T T T" Time=475
Ar 7.365480 5.413252 3.370177
Ar 2.119011 2.318889 8.247061
Ar 1.263312 3.203982 5.434231
Ar 9.437268 8.726437 1.864965
Ar 5.883585 4.631344 7.543626
Ar 6.568530 0.385051 7.788440
Ar 0.688990 5.502061 3.152884
Ar 0.645628 2.613144 4.614828
Ar 7.900427 5.391865 9.316309
Ar 5.086027 2.662940 0.683008
10
Lattice="10.0 0 0 0 10.0 0 0 0 10.0" Properties=species:S:1:pos:R:3 pbc="T T T" Time=476
Ar 3.891600 0.190348 0.589870
Ar 3.716818 8.831975 9.737758
Ar 3.985026 1.890810 2.076960
Ar 6.948287 7.392932 0.506330
Ar 5.230276 3.348571 9.674010
Ar 6.086752 9.075700 8.140777
Ar 1.106609 8.159421 8.726910
Ar 5.280999 1.199977 8.632710
Ar 5.757590 7.413814 6.351126
Ar 5.021685 3.396223 7.617247
10
Lattice="10.0 0 0 0 10.0 0 0 0 10.0" Properties=species:S:1:pos:R:3 pbc="T T T" Time=477
Ar 0.417720 4.967444 7.809563
Ar 5.314626 5.345061 1.228456
Ar 6.706845 0.577738 8.719828
Ar 4.459306 6.059427 9.147695
Ar 4.576966 2.065798 1.804392
Ar 5.604974 7.766349 8.493113
Ar 1.524227 0.816782 4.300935
Ar 9.916265 9.786709 2.650453
Ar 3.614754 9.435764 3.385943
Ar 4.957343 4.129507 4.551487
10
Lattice="10.0 0 0 0 10.0 0 0 0 10.0" Properties=species:S:1:pos:R:3 pbc="T T T" Time=478
Ar 6.943845 9.744596 5.029293
Ar 6.912425 1.858083 2.719115
Ar 9.428664 9.264671 5.362703
Ar 1.970326 4.725921 7.789060
Ar 3.923658 0.783030 3.934790
Ar 5.123200 6.456995 8.845450
Ar 1.941845 3.474143 9.874960
Ar 4.551532 8.373440 6.668194
Ar 1.471918 1.457711 0.420757
Ar 4.892999 4.862795 1.485711
10
Lattice="10.0 0 0 0 10.0 0 0 0 10.0" Properties=species:S:1:pos:R:3 pbc="T T T" Time=479
Ar 3.469971 4.521748 2.249023
Ar 8.510226 8.371104 4.209780
Ar 2.150484 7.951606 2.005578
Ar 9.481338 3.392408 6.430424
Ar 3.270350 9.500262 6.065188
Ar 4.641432 5.147649 9.197782
Ar 2.359462 6.131507 5.448988
Ar 9.186796 6.960170 0.685932
Ar 9.329084 3.479657 7.455571
Ar 4.828655 5.596083 8.419935
10
Lattice="10.0 0 0 0 10.0 0 0 0 10.0" Properties=species:S:1:pos:R:3 pbc="T T T" Time=480
Ar 9.996094 9.298900 9.468753
Ar 0.108027 4.884126 5.700444
Ar 4.872307 6.638540 8.648453
Ar 6.992350 2.058898 5.071784
Ar 2.617041 8.217494 8.195585
Ar 4.159664 3.838302 9.550115
Ar 2.777082 8.788879 1.023017
Ar 3.822060 5.546899 4.703670
Ar 7.186247 5.501591 4.490388
Ar 4.764312 6.329371 5.354160
10
Lattice="10.0 0 0 0 10.0 0 0 0 10.0" Properties=species:S:1:pos:R:3 pbc="T T T" Time=481
Ar 6.522217 4.076052 6.688484
Ar 1.705829 1.397147 7.191108
Ar 7.594130 5.325474 5.291328
Ar 4.503207 0.725477 3.714186
Ar 1.963733 6.934726 0.325983
Ar 3.680014 2.534029 9.893649
Ar 3.194701 1.446250 6.597046
Ar 8.457323 4.133629 8.721408
Ar 5.043565 7.523437 1.524162
Ar 4.697850 7.057586 2.297184
10
Lattice="10.0 0 0 0 10.0 0 0 0 10.0" Properties=species:S:1:pos:R:3 pbc="T T T" Time=482
Ar 3.048338 8.853205 3.908214
Ar 3.303630 7.910169 8.681772
Ar 0.315956 4.012409 1.934204
Ar 2.014064 9.392055 2.356589
Ar 1.310423 5.651959 2.456378
Ar 3.200364 1.229754 0.237183
Ar 3.612322 4.103622 2.171077
Ar 3.092467 2.720260 2.739064
Ar 2.900885 9.545282 8.557935
Ar 4.631505 7.785900 9.240290
10
Lattice="10.0 0 0 0 10.0 0 0 0 10.0" Properties=species:S:1:pos:R:3 pbc="T T T" Time=483
Ar 9.574454 3.630351 1.127950
Ar 4.901360 4.423188 0.172465
Ar 3.037786 2.699349 8.577072
Ar 9.524922 8.058633 0.998990
Ar 0.657113 4.369192 4.586774
Ar 2.720714 9.925480 0.580717
Ar 4.030013 6.760997 7.745079
Ar 7.727612 1.306891 6.756721
Ar 0.756620 1.564992 5.595251
Ar 4.566745 8.516350 6.179854
10
Lattice="10.0 0 0 0 10.0 0 0 0 10.0" Properties=species:S:1:pos:R:3 pbc="T T T" Time=484
Ar 6.100581 8.407491 8.347704
Ar 6.498973 0.936164 1.663107
Ar 5.759606 1.386275 5.219935
Ar 7.035767 6.725216 9.641375
Ar 0.003810 3.086442 6.717174
Ar 2.241065 8.621209 0.924253
Ar 4.447735 9.418444 3.319051
Ar 2.362731 9.893449 0.774409
Ar 8.612340 3.584756 2.632558
Ar 4.502118 9.246784 3.119473
10
Lattice="10.0 0 0 0 10.0 0 0 0 10.0" Properties=species:S:1:pos:R:3 pbc="T T T" Time=485
Ar 2.626708 3.184631 5.567458
Ar 8.096586 7.449141 3.153749
Ar 8.481425 0.073200 1.862798
Ar 4.546611 5.391799 8.283761
Ar 9.350507 1.803693 8.847574
Ar 1.761416 7.316938 1.267789
Ar 4.865455 2.075887 8.893026
Ar 6.997849 8.480007 4.792098
Ar 6.468060 5.604518 9.669865
Ar 4.437492 9.977223 0.059089
10
Lattice="10.0 0 0 0 10.0 0 0 0 10.0" Properties=species:S:1:pos:R:3 pbc="T T T" Time=486
Ar 9.152833 7.961775 2.787208
Ar 9.694201 3.962119 4.644391
Ar 1.203245 8.760126 8.505662
Ar 2.057459 4.058378 6.926149
Ar 8.697205 0.520943 0.977975
Ar 1.281745 6.012440 1.611351
Ar 6.727245 9.338575 9.094919
Ar 1.632988 7.066792 8.809759
Ar 4.323781 7.624280 6.707173
Ar 2.928796 6.102415 2.370789
10
Lattice="10.0 0 0 0 10.0 0 0 0 10.0" Properties=species:S:1:pos:R:3 pbc="T T T" Time=487
Ar 5.678957 2.738920 0.006958
Ar 1.291819 0.475092 6.135026
Ar 3.925065 7.447053 5.148525
Ar 9.568302 2.724957 5.568535
Ar 8.043902 9.238194 3.108375
Ar 0.802074 4.707941 1.954914
Ar 8.589036 6.601266 9.296809
Ar 6.268122 5.653582 2.827427
Ar 2.179506 9.644043 3.744483
Ar 1.420099 2.227603 4.682492
10
Lattice="10.0 0 0 0 10.0 0 0 0 10.0" Properties=species:S:1:pos:R:3 pbc="T T T" Time=488
Ar 2.205081 7.516064 7.226709
Ar 2.889438 6.988065 7.625662
Ar 6.646875 6.134019 1.791382
Ar 7.079145 1.391535 4.210920
Ar 7.390600 7.955446 5.238775
Ar 0.322371 3.403440 2.298462
Ar 0.450826 3.863957 9.498699
Ar 0.903266 4.240333 6.845101
Ar 0.035231 1.663806 0.781793
Ar 9.911433 8.352793 6.994209
10
Lattice="10.0 0 0 0 10.0 0 0 0 10.0" Properties=species:S:1:pos:R:3 pbc="T T T" Time=489
Ar 8.731205 2.293209 4.446460
Ar 4.487056 3.501032 9.116304
Ar 9.368685 4.820985 8.434239
Ar 4.589976 0.058117 2.853311
Ar 6.737298 6.672699 7.369175
Ar 9.842669 2.098939 2.642010
Ar 2.312616 1.126648 9.700589
Ar 5.538411 2.827084 0.862775
Ar 7.890957 3.683568 7.819100
Ar 8.402779 4.477987 9.305916
10
Lattice="10.0 0 0 0 10.0 0 0 0 10.0" Properties=species:S:1:pos:R:3 pbc="T T T" Time=490
Ar 5.261439 7.067184 1.668605
Ar 6.080568 0.017167 0.604553
Ar 2.090496 3.507950 5.077095
Ar 2.100808 8.724700 1.495702
Ar 6.083995 5.389950 9.499576
Ar 9.362968 0.794442 2.985564
Ar 4.174407 8.389342 9.902477
Ar 0.173555 1.413834 4.880447
Ar 5.746682 5.703322 4.856404
Ar 6.894120 0.603183 1.617624
10
Lattice="10.0 0 0 0 10.0 0 0 0 10.0" Properties=species:S:1:pos:R:3 pbc="T T T" Time=491
Ar 1.791668 1.841159 8.890759
Ar 7.674074 6.533306 2.092793
Ar 4.812465 2.194979 1.719830
Ar 9.611639 7.391282 0.138093
Ar 5.430691 4.107204 1.629975
Ar 8.883272 9.489944 3.329108
Ar 6.036196 5.652035 0.104366
Ar 4.808704 0.000581 8.898128
Ar 3.602380 7.723044 1.893667
Ar 5.385332 6.728347 3.929497
10
Lattice="10.0 0 0 0 10.0 0 0 0 10.0" Properties=species:S:1:pos:R:3 pbc="T T T" Time=492
Ar 8.321898 6.615133 6.112918
Ar 9.267496 3.049384 3.580925
Ar 7.534435 0.882008 8.362564
Ar 7.122468 6.057864 8.780485
Ar 4.777388 2.824455 3.760374
Ar 8.403574 8.185444 3.672643
Ar 7.897984 2.914728 0.306248
Ar 9.443857 8.587330 2.915819
Ar 1.458078 9.742766 8.930929
Ar 3.876629 2.853574 6.241478
10
Lattice="10.0 0 0 0 10.0 0 0 0 10.0" Properties=species:S:1:pos:R:3 pbc="T T T" Time=493
Ar 4.852128 1.389107 3.335077
Ar 0.860919 9.565463 5.069058
Ar 0.256400 9.569021 5.005300
Ar 4.633298 4.724447 7.422877
Ar 4.124088 1.541718 5.890776
Ar 7.923876 6.880943 4.016179
Ar 9.759772 0.177426 0.508124
Ar 4.079010 7.174079 6.933509
Ar 9.313774 1.762489 5.968191
Ar 2.367927 8.978801 8.553461
10
Lattice="10.0 0 0 0 10.0 0 0 0 10.0" Properties=species:S:1:pos:R:3 pbc="T T T" Time=494
Ar 1.382358 6.163080 0.557236
Ar 2.454342 6.081542 6.557191
Ar 2.978365 8.256033 1.648034
Ar 2.144128 3.391030 6.065269
Ar 3.470789 0.258980 8.021176
Ar 7.444025 5.576385 4.359825
Ar 1.621561 7.440124 0.710000
Ar 8.714316 5.760887 0.951088
Ar 7.169471 3.782212 3.005452
Ar 0.859223 5.104028 0.865446
10
Lattice="10.0 0 0 0 10.0 0 0 0 10.0" Properties=species:S:1:pos:R:3 pbc="T T T" Time=495
Ar 7.912588 0.937054 7.779393
Ar 1.041118 2.615315 7.728215
Ar 8.706979 6.925347 8.607877
Ar 9.654958 2.057610 4.707662
Ar 2.817490 8.976242 0.151579
Ar 6.964175 4.271826 4.703470
Ar 3.483350 4.702823 0.911877
Ar 3.349622 4.347698 4.968666
Ar 5.025166 5.801939 0.042716
Ar 9.350519 1.229255 3.177432
10
Lattice="10.0 0 0 0 10.0 0 0 0 10.0" Properties=species:S:1:pos:R:3 pbc="T T T" Time=496
Ar 4.442881 5.711015 5.001464
Ar 9.627894 9.149090 8.899238
Ar 4.435617 5.594676 5.567737
Ar 7.165788 0.724188 3.350054
Ar 2.164190 7.693505 2.281981
Ar 6.484324 2.967273 5.047121
Ar 5.345156 1.965727 1.113763
Ar 7.984918 2.934510 8.986243
Ar 2.880859 7.821660 7.079975
Ar 7.841721 7.354272 5.489478
10
Lattice="10.0 0 0 0 10.0 0 0 0 10.0" Properties=species:S:1:pos:R:3 pbc="T T T" Time=497
Ar 0.973173 0.484977 2.223535
Ar 8.214671 5.682865 0.070262
Ar 0.164256 4.264005 2.527596
Ar 4.676625 9.390786 1.992483
Ar 1.510890 6.410767 4.412384
Ar 6.004474 1.662721 5.390771
Ar 7.206953 9.228624 1.315654
Ar 2.620213 1.521323 3.003821
Ar 0.736563 9.841387 4.117228
Ar 6.332916 3.479270 7.801487
10
Lattice="10.0 0 0 0 10.0 0 0 0 10.0" Properties=species:S:1:pos:R:3 pbc="T T T" Time=498
Ar 7.430067 4.083337 5.167746
Ar 6.801447 2.216641 1.241286
Ar 5.966292 4.108934 3.765315
Ar 2.187463 8.057382 0.634910
Ar 0.857591 5.128030 6.542786
Ar 5.524624 0.358169 5.734422
Ar 9.068749 6.491520 1.517545
Ar 7.255509 0.108136 7.021399
Ar 8.592266 1.861115 1.154482
Ar 4.824111 9.604267 0.113496
10
Lattice="10.0 0 0 0 10.0 0 0 0 10.0" Properties=species:S:1:pos:R:3 pbc="T T T" Time=499
Ar 3.886954 7.681696 8.111937
Ar 5.388224 8.750416 2.412310
Ar 1.768327 3.953864 5.003034
Ar 9.698300 6.723977 9.277338
Ar 0.204291 3.845293 8.673189
Ar 5.044774 9.053616 6.078073
Ar 0.930548 3.754417 1.719436
Ar 1.890817 8.694957 1.038981
Ar 6.447965 3.880837 8.191753
Ar 3.315306 5.729265 2.425506
10
Lattice="10.0 0 0 0 10.0 0 0 0 10.0" Properties=species:S:1:pos:R:3 pbc="T T T" Time=500
Ar 0.343852 1.280056 1.056138
Ar 3.974968 5.284198 3.583335
Ar 7.570351 3.798794 6.240742
Ar 7.209135 5.390573 7.919767
Ar 9.550992 2.562556 0.803592
Ar 4.564916 7.749065 6.421718
Ar 2.792346 1.017314 1.921326
Ar 6.526132 7.281776 5.056569
Ar 4.303697 5.900553 5.229023
Ar 1.806501 1.854263 4.737516
10
Lattice="10.0 0 0 0 10.0 0 0 0 10.0" Properties=species:S:1:pos:R:3 pbc="T T T" Time=501
Ar 6.800749 4.878414 4.000342
Ar 2.561712 1.817980 4.754359
Ar 3.372374 3.643723 7.478450
Ar 4.719971 4.057169 6.562195
Ar 8.897693 1.279818 2.933994
Ar 4.085059 6.444514 6.765361
Ar 4.654144 8.280210 2.123217
Ar 1.161448 5.868597 9.074157
Ar 2.159429 7.920268 2.266293
Ar 0.297697 7.979261 7.049526
10
Lattice="10.0 0 0 0 10.0 0 0 0 10.0" Properties=species:S:1:pos:R:3 pbc="T T T" Time=502
Ar 3.257698 8.476686 6.944561
Ar 1.148449 8.351748 5.925348
Ar 9.174398 3.488649 8.716154
Ar 2.230805 2.723769 5.204628
Ar 8.244341 9.997166 5.064379
Ar 3.605198 5.139973 7.109011
Ar 6.515945 5.543105 2.325107
Ar 5.796769 4.455418 3.091742
Ar 0.015165 9.939988 9.303593
Ar 8.788893 4.104259 9.361537
10
Lattice="10.0 0 0 0 10.0 0 0 0 10.0" Properties=species:S:1:pos:R:3 pbc="T T T" Time=503
Ar 9.714646 2.074957 9.888779
Ar 9.735186 4.885516 7.096337
Ar 4.976377 3.333559 9.953890
Ar 9.741687 1.390380 3.847030
Ar 7.590988 8.714515 7.194763
Ar 3.125338 3.835436 7.452662
Ar 8.377749 2.806001 2.526998
Ar 0.432091 3.042239 7.109328
Ar 7.870897 1.959707 6.340894
Ar 7.280088 0.229258 1.673547
10
Lattice="10.0 0 0 0 10.0 0 0 0 10.0" Properties=species:S:1:pos:R:3 pbc="T T T" Time=504
Ar 6.171600 5.673230 2.833001
Ar 8.321918 1.419284 8.267323
Ar 0.776752 3.181029 1.194310
Ar 7.252568 0.056990 2.489431
Ar 6.937634 7.431864 9.325148
Ar 2.645477 2.530899 7.796313
Ar 0.239606 0.068977 2.728833
Ar 5.067360 1.628980 1.126970
Ar 5.726629 3.979426 3.378194
Ar 5.772887 6.351697 3.982873
10
Lattice="10.0 0 0 0 10.0 0 0 0 10.0" Properties=species:S:1:pos:R:3 pbc="T T T" Time=505
Ar 2.628555 9.271502 5.777222
Ar 6.908643 7.953071 9.438308
Ar 6.577127 3.028500 2.434730
Ar 4.763454 8.723596 1.131835
Ar 6.284281 6.149212 1.455533
Ar 2.165618 1.226363 8.139964
Ar 2.101460 7.331957 2.930665
Ar 9.702636 0.215704 5.144612
Ar 3.582359 5.999145 0.415495
Ar 4.265685 2.474134 6.292199
10
Lattice="10.0 0 0 0 10.0 0 0 0 10.0" Properties=species:S:1:pos:R:3 pbc="T T T" Time=506
Ar 9.085567 2.869721 8.721293
Ar 5.495368 4.486857 0.609294
Ar 2.377502 2.875970 3.675151
Ar 2.274339 7.390202 9.774240
Ar 5.630927 4.866561 3.585917
Ar 1.685759 9.921826 8.483614
Ar 3.963315 4.594936 3.132498
Ar 4.337911 8.802427 9.162253
Ar 1.438081 8.018830 7.452805
Ar 2.758433 8.596659 8.601667
10
Lattice="10.0 0 0 0 10.0 0 0 0 10.0" Properties=species:S:1:pos:R:3 pbc="T T T" Time=507
Ar 5.542579 6.467938 1.665364
Ar 4.082094 1.020645 1.780277
Ar 8.177878 2.723441 4.915571
Ar 9.785223 6.056811 8.416646
Ar 4.977575 3.583908 5.716303
Ar 1.205899 8.617290 8.827266
Ar 5.825169 1.857916 3.334331
Ar 8.973185 7.389151 3.179893
Ar 9.293802 0.038513 4.490114
Ar 1.251183 4.719184 0.911135
10
Lattice="10.0 0 0 0 10.0 0 0 0 10.0" Properties=species:S:1:pos:R:3 pbc="T T T" Time=508
Ar 1.999591 0.066156 4.609434
Ar 2.668821 7.554432 2.951258
Ar 3.978250 2.570907 6.155993
Ar 7.296094 4.723385 7.059085
Ar 4.324266 2.301261 7.846702
Ar 0.726007 7.312804 9.170918
Ar 7.686984 9.120893 3.536153
Ar 3.608516 5.975882 7.197552
Ar 7.149497 2.058179 1.527395
Ar 9.743947 0.841703 3.220578
10
Lattice="10.0 0 0 0 10.0 0 0 0 10.0" Properties=species:S:1:pos:R:3 pbc="T T T" Time=509
Ar 8.456603 3.664374 7.553504
Ar 1.255545 4.088218 4.122236
Ar 9.778623 2.418375 7.396416
Ar 4.806964 3.389959 5.701524
Ar 3.670956 1.018616 9.977102
Ar 0.246115 6.008320 9.514570
Ar 9.548800 6.383870 3.737976
Ar 8.243847 4.562613 1.215211
Ar 5.005194 4.077844 8.564676
Ar 8.236712 6.964222 5.530021
10
Lattice="10.0 0 0 0 10.0 0 0 0 10.0" Properties=species:S:1:pos:R:3 pbc="T T T" Time=510
Ar 4.913616 7.262592 0.497576
Ar 9.842270 0.622004 5.293214
Ar 5.578986 2.265849 8.636795
Ar 2.317834 2.056532 4.343963
Ar 3.017655 9.735963 2.107545
Ar 9.766223 4.703836 9.858222
Ar 1.410615 3.646845 3.939799
Ar 2.879177 3.149345 5.232869
Ar 2.860889 6.097510 5.601957
Ar 6.729477 3.086742 7.839463
10
Lattice="10.0 0 0 0 10.0 0 0 0 10.0" Properties=species:S:1:pos:R:3 pbc="T T T" Time=511
Ar 1.370605 0.860833 3.441650
Ar 8.428995 7.155788 6.464192
Ar 1.379375 2.113301 9.877171
Ar 9.828704 0.723105 2.986401
Ar 2.364353 8.453311 4.237988
Ar 9.286332 3.399352 0.201874
Ar 3.272434 0.909820 4.141617
Ar 7.514507 1.736076 9.250528
Ar 0.716585 8.117176 2.639239
Ar 5.222239 9.209265 0.148910
10
Lattice="10.0 0 0 0 10.0 0 0 0 10.0" Properties=species:S:1:pos:R:3 pbc="T T T" Time=512
Ar 7.827595 4.459073 6.385725
Ar 7.015719 3.689571 7.635170
Ar 7.179712 1.960715 1.117582
Ar 7.339548 9.389577 1.628781
Ar 1.711052 7.170657 6.368431
Ar 8.806441 2.094869 0.545526
Ar 5.134226 8.172823 4.343418
Ar 2.149889 0.322879 3.268262
Ar 8.572281 0.136845 9.676521
Ar 3.715051 5.331824 2.458323
10
Lattice="10.0 0 0 0 10.0 0 0 0 10.0" Properties=species:S:1:pos:R:3 pbc="T T T" Time=513
Ar 4.284639 8.057322 9.329814
Ar 5.602444 0.223354 8.806149
Ar 2.980053 1.808128 2.357993
Ar 4.850320 8.056044 0.271140
Ar 1.057755 5.888000 8.498880
Ar 8.326549 0.790389 0.889179
Ar 6.996035 5.435829 4.545224
Ar 6.785270 8.909682 7.285994
Ar 6.427972 2.156509 6.713798
Ar 2.207863 1.454382 4.767735
10
Lattice="10.0 0 0 0 10.0 0 0 0 10.0" Properties=species:S:1:pos:R:3 pbc="T T T" Time=514
Ar 0.741712 1.655599 2.273860
Ar 4.189139 6.757111 9.977170
Ar 8.780348 1.655541 3.598420
Ar 2.361089 6.722507 8.913504
Ar 0.404458 4.605344 0.629329
Ar 7.846703 9.485924 1.232821
Ar 8.857844 2.698835 4.747031
Ar 1.420650 7.496484 1.303726
Ar 4.283666 4.176163 3.751066
Ar 0.700675 7.576941 7.077147
10
Lattice="10.0 0 0 0 10.0 0 0 0 10.0" Properties=species:S:1:pos:R:3 pbc="T T T" Time=515
Ar 7.198873 5.253872 5.218056
Ar 2.775833 3.290875 1.148195
Ar 4.580644 1.502955 4.838845
Ar 9.871768 5.388968 7.555719
Ar 9.751161 3.322686 2.759777
Ar 7.366857 8.181459 1.576463
Ar 0.719653 9.961841 4.948838
Ar 6.056034 6.083283 5.321454
Ar 2.139360 6.195818 0.788333
Ar 9.193486 3.699498 9.386562
10
Lattice="10.0 0 0 0 10.0 0 0 0 10.0" Properties=species:S:1:pos:R:3 pbc="T T T" Time=516
Ar 3.656039 8.852145 8.162249
Ar 1.362539 9.824638 2.319226
Ar 0.380930 1.350306 6.079203
Ar 7.382439 4.055427 6.197928
Ar 9.097864 2.040029 4.890226
Ar 6.887012 6.876993 1.920104
Ar 2.581467 7.224911 5.150715
Ar 0.691417 4.670083 9.339184
Ar 9.995054 8.215473 7.825600
Ar 7.686295 9.822057 1.695975
10
Lattice="10.0 0 0 0 10.0 0 0 0 10.0" Properties=species:S:1:pos:R:3 pbc="T T T" Time=517
Ar 0.113332 2.450325 1.106431
Ar 9.949245 6.358401 3.490256
Ar 6.181217 1.197657 7.319561
Ar 4.893111 2.721889 4.840135
Ar 8.444566 0.757371 7.020674
Ar 6.407166 5.572528 2.263746
Ar 4.443280 4.487980 5.352592
Ar 5.326673 3.256975 3.356926
Ar 7.850748 0.235130 4.862867
Ar 6.179103 5.944614 4.005389
10
Lattice="10.0 0 0 0 10.0 0 0 0 10.0" Properties=species:S:1:pos:R:3 pbc="T T T" Time=518
Ar 6.570626 6.048506 4.050612
Ar 8.535952 2.892164 4.661286
Ar 1.981522 1.044997 8.559937
Ar 2.403782 1.388351 3.482343
Ar 7.791250 9.474722 9.151106
Ar 5.927319 4.268061 2.607387
Ar 6.305094 1.751049 5.554468
Ar 9.961928 1.843868 7.374668
Ar 5.706442 2.254786 1.900134
Ar 4.671911 2.067172 6.314804
10
Lattice="10.0 0 0 0 10.0 0 0 0 10.0" Properties=species:S:1:pos:R:3 pbc="T T T" Time=519
Ar 3.027920 9.646686 6.994794
Ar 7.122659 9.425926 5.832317
Ar 7.781821 0.892339 9.800314
Ar 9.914440 0.054767 2.124605
Ar 7.137942 8.192074 1.281542
Ar 5.447479 2.963589 2.950992
Ar 8.166898 9.014143 5.756357
Ar 4.597202 0.430778 1.392345
Ar 3.562135 4.274440 8.937394
Ar 3.164716 8.189740 8.624254
10
Lattice="10.0 0 0 0 10.0 0 0 0 10.0" Properties=species:S:1:pos:R:3 pbc="T T T" Time=520
Ar 9.485215 3.244871 9.938978
Ar 5.709368 5.959690 7.003346
Ar 3.582123 0.739680 1.040694
Ar 7.425099 8.721182 0.766867
Ar 6.484634 6.909426 3.411979
Ar 4.967637 1.659123 3.294596
Ar 0.028730 6.277230 5.958232
Ar 9.232473 9.017690 5.410020
Ar 1.417826 6.294084 5.974650
Ar 1.657492 4.312315 0.933717
10
Lattice="10.0 0 0 0 10.0 0 0 0 10.0" Properties=species:S:1:pos:R:3 pbc="T T T" Time=521
Ar 5.942509 6.843063 2.883156
Ar 4.296064 2.493459 8.174376
Ar 9.382425 0.587021 2.281073
Ar 4.935758 7.387597 9.409130
Ar 5.831326 5.626776 5.542416
Ar 4.487796 0.354658 3.638200
Ar 1.890575 3.540312 6.160107
Ar 3.867743 7.604602 9.427695
Ar 9.273518 8.313728 3.011906
Ar 0.150268 0.434882 3.243188
10
Lattice="10.0 0 0 0 10.0 0 0 0 10.0" Properties=species:S:1:pos:R:3 pbc="T T T" Time=522
Ar 2.399802 0.441253 5.827332
Ar 2.882760 9.027228 9.345406
Ar 5.182727 0.434362 3.521451
Ar 2.446417 6.054013 8.051392
Ar 5.178018 4.344126 7.672854
Ar 4.007956 9.050194 3.981807
Ar 3.752247 0.803391 6.361980
Ar 8.503012 6.191515 3.445371
Ar 7.129383 0.333374 0.049164
Ar 8.643047 6.557451 5.552660
10
Lattice="10.0 0 0 0 10.0 0 0 0 10.0" Properties=species:S:1:pos:R:3 pbc="T T T" Time=523
Ar 8.857094 4.039443 8.771508
Ar 1.469456 5.560997 0.516437
Ar 0.982880 0.281737 4.761641
Ar 9.956828 4.720479 6.693658
Ar 4.524709 3.061476 9.803292
Ar 3.528116 7.745730 4.325413
Ar 5.613919 8.066469 6.563853
Ar 3.138529 4.778377 7.463041
Ar 4.985245 2.353008 7.086422
Ar 7.135976 2.679997 7.862318
10
Lattice="10.0 0 0 0 10.0 0 0 0 10.0" Properties=species:S:1:pos:R:3 pbc="T T T" Time=524
Ar 5.314279 7.637606 1.715643
Ar 0.056152 2.094766 1.687468
Ar 6.783052 0.129133 6.001823
Ar 7.467239 3.386944 5.335924
Ar 3.871402 1.778825 1.933730
Ar 3.048259 6.441243 4.669024
Ar 7.475695 5.329577 6.765768
Ar 7.774046 3.365238 1.480701
Ar 2.841108 4.372643 4.123681
Ar 5.628907 8.802545 0.171988
10
Lattice="10.0 0 0 0 10.0 0 0 0 10.0" Properties=species:S:1:pos:R:3 pbc="T T T" Time=525
Ar 1.771467 1.235771 4.659784
Ar 8.642848 8.628535 2.858500
Ar 2.583223 9.976529 7.242006
Ar 4.977651 2.053411 3.978186
Ar 3.218094 0.496174 4.064171
Ar 2.568401 5.136757 5.012634
Ar 9.337472 2.592684 6.967685
Ar 2.409562 1.952100 5.498360
Ar 0.696965 6.392275 1.160936
Ar 4.121839 4.925091 2.481657
10
Lattice="10.0 0 0 0 10.0 0 0 0 10.0" Properties=species:S:1:pos:R:3 pbc="T T T" Time=526
Ar 8.228652 4.833924 7.603941
Ar 7.229546 5.162303 4.029532
Ar 8.383395 9.823925 8.482189
Ar 2.488064 0.719875 2.620445
Ar 2.564785 9.213524 6.194611
Ar 2.088545 3.832281 5.356248
Ar 1.199249 9.855796 7.169604
Ar 7.045076 0.538963 9.516019
Ar 8.552821 8.411897 8.198188
Ar 2.614775 1.047648 4.791310
10
Lattice="10.0 0 0 0 10.0 0 0 0 10.0" Properties=species:S:1:pos:R:3 pbc="T T T" Time=527
Ar 4.685678 8.431965 0.547960
Ar 5.816244 1.696071 5.200565
Ar 4.183566 9.671318 9.722375
Ar 9.998482 9.386342 1.262703
Ar 1.911517 7.930842 8.325029
Ar 1.608688 2.527805 5.699862
Ar 3.061026 7.118908 7.371523
Ar 1.680703 9.125965 3.533837
Ar 6.408677 0.431519 5.235440
Ar 1.107712 7.170206 7.100962
10
Lattice="10.0 0 0 0 10.0 0 0 0 10.0" Properties=species:S:1:pos:R:3 pbc="T T T" Time=528
Ar 1.142705 2.030006 3.491978
Ar 4.402942 8.229839 6.371597
Ar 9.983745 9.518834 0.962570
Ar 7.508900 8.052808 9.904952
Ar 1.258276 6.648142 0.455430
Ar 1.128831 1.223332 6.043476
Ar 4.922774 4.382033 7.573463
Ar 6.316306 7.712981 7.551674
Ar 4.264549 2.451004 2.272664
Ar 9.600650 3.292770 9.410617
10
Lattice="10.0 0 0 0 10.0 0 0 0 10.0" Properties=species:S:1:pos:R:3 pbc="T T T" Time=529
Ar 7.599760 5.627978 6.436043
Ar 2.989569 4.763761 7.542624
Ar 5.783896 9.366421 2.202720
Ar 5.019317 6.719273 8.547200
Ar 0.605030 5.365497 2.585909
Ar 0.648973 9.918858 6.387091
Ar 6.784579 1.645131 7.775375
Ar 0.951910 6.299997 1.569512
Ar 2.120493 4.470336 9.309893
Ar 8.093537 9.415305 1.720222
10
Lattice="10.0 0 0 0 10.0 0 0 0 10.0" Properties=species:S:1:pos:R:3 pbc="T T T" Time=530
Ar 4.056814 9.225951 9.380107
Ar 1.576189 1.297683 8.713648
Ar 1.584047 9.214008 3.442870
Ar 2.529734 5.385739 7.189449
Ar 9.951785 4.082851 4.716388
Ar 0.169116 8.614384 6.730708
Ar 8.646384 8.908230 7.977288
Ar 5.587518 4.887011 5.587351
Ar 9.976438 6.489668 6.347121
Ar 6.586424 5.537839 4.029827
10
Lattice="10.0 0 0 0 10.0 0 0 0 10.0" Properties=species:S:1:pos:R:3 pbc="T T T" Time=531
Ar 0.513869 2.823924 2.324169
Ar 0.162818 7.831608 9.884656
Ar 7.384192 9.061595 4.683022
Ar 0.040152 4.052206 5.831700
Ar 9.298502 2.800104 6.846977
Ar 9.689259 7.309910 7.074325
Ar 0.508189 6.171328 8.179200
Ar 0.223163 3.474126 9.605081
Ar 7.832374 8.508997 3.384366
Ar 5.079316 1.660374 6.339431
10
Lattice="10.0 0 0 0 10.0 0 0 0 10.0" Properties=species:S:1:pos:R:3 pbc="T T T" Time=532
Ar 6.970925 6.421896 5.268232
Ar 8.749446 4.365534 1.055663
Ar 3.184338 8.909183 5.923173
Ar 7.550571 2.718672 4.473950
Ar 8.645219 1.517356 8.977566
Ar 9.209417 6.005443 7.417932
Ar 2.369978 3.434429 8.381124
Ar 4.858798 2.061235 3.622827
Ar 5.688309 0.528316 0.421608
Ar 3.572219 7.782915 8.649018
10
Lattice="10.0 0 0 0 10.0 0 0 0 10.0" Properties=species:S:1:pos:R:3 pbc="T T T" Time=533
Ar 3.427980 0.019868 8.212297
Ar 7.336073 0.899463 2.226675
Ar 8.984446 8.756816 7.163433
Ar 5.061007 1.385166 3.116177
Ar 7.991919 0.234579 1.108176
Ar 8.729556 4.701001 7.761514
Ar 4.231787 0.697504 8.583070
Ar 9.494433 0.648343 7.640573
Ar 3.544282 2.547589 7.458742
Ar 2.065121 3.905457 0.958605
10
Lattice="10.0 0 0 0 10.0 0 0 0 10.0" Properties=species:S:1:pos:R:3 pbc="T T T" Time=534
Ar 9.885035 3.617840 1.156361
Ar 5.922701 7.433393 3.397687
Ar 4.784554 8.604451 8.403692
Ar 2.571444 0.051661 1.758405
Ar 7.338619 8.951801 3.238786
Ar 8.249697 3.396559 8.105096
Ar 6.093596 7.960578 8.785015
Ar 4.130067 9.235451 1.658319
Ar 1.400254 4.566862 4.495875
Ar 0.558024 0.027998 3.268193
10
Lattice="10.0 0 0 0 10.0 0 0 0 10.0" Properties=species:S:1:pos:R:3 pbc="T T T" Time=535
Ar 6.342124 7.215838 4.100441
Ar 4.509271 3.967383 4.568803
Ar 0.584657 8.452069 9.643947
Ar 0.081877 8.718156 0.400634
Ar 6.685380 7.668962 5.369292
Ar 7.769837 2.092117 8.448678
Ar 7.955373 5.223618 8.986948
Ar 8.765705 7.822575 5.676069
Ar 9.256224 6.586144 1.533004
Ar 9.050926 6.150539 5.577781
10
Lattice="10.0 0 0 0 10.0 0 0 0 10.0" Properties=species:S:1:pos:R:3 pbc="T T T" Time=536
Ar 2.799214 0.813837 7.044522
Ar 3.095832 0.501364 5.739920
Ar 6.384663 8.299735 0.884173
Ar 7.592276 7.384670 9.042863
Ar 6.032151 6.386132 7.499797
Ar 7.289977 0.787675 8.792260
Ar 9.817248 2.486609 9.188909
Ar 3.401380 6.409680 9.693817
Ar 7.112194 8.605425 8.570132
Ar 7.543826 2.273081 7.887372
10
Lattice="10.0 0 0 0 10.0 0 0 0 10.0" Properties=species:S:1:pos:R:3 pbc="T T T" Time=537
Ar 9.256259 4.411779 9.988444
Ar 1.682393 7.035344 6.911037
Ar 2.181342 8.149163 2.129407
Ar 5.106004 6.049427 7.680082
Ar 5.378950 5.103359 9.630457
Ar 6.810117 9.483233 9.135842
Ar 1.679122 9.749601 9.390870
Ar 8.037059 4.996839 3.711570
Ar 4.968164 0.624704 5.607264
Ar 6.036737 8.395568 0.196960
10
Lattice="10.0 0 0 0 10.0 0 0 0 10.0" Properties=species:S:1:pos:R:3 pbc="T T T" Time=538
Ar 5.713264 8.009762 2.932539
Ar 0.268993 3.569282 8.081981
Ar 7.978016 7.998592 3.374650
Ar 2.619796 4.714033 6.317358
Ar 4.725746 3.820581 1.761113
Ar 6.330251 8.178764 9.479447
Ar 3.541000 7.012593 9.592832
Ar 2.672738 3.583998 7.729323
Ar 2.824076 2.644124 2.644333
Ar 4.529651 4.518092 2.506524
10
Lattice="10.0 0 0 0 10.0 0 0 0 10.0" Properties=species:S:1:pos:R:3 pbc="T T T" Time=539
Ar 2.170270 1.607746 5.876634
Ar 8.855593 0.103221 9.252925
Ar 3.774691 7.848021 4.619893
Ar 0.133588 3.378644 4.954625
Ar 4.072543 2.537799 3.891778
Ar 5.850409 6.874328 9.823019
Ar 5.402877 4.275586 9.794794
Ar 7.308416 2.171158 1.747076
Ar 0.679988 4.663545 9.681402
Ar 3.022542 0.640583 4.816121
10
Lattice="10.0 0 0 0 10.0 0 0 0 10.0" Properties=species:S:1:pos:R:3 pbc="T T T" Time=540
Ar 8.627269 5.205730 8.820728
Ar 7.442188 6.637159 0.423869
Ar 9.571372 7.697450 5.865138
Ar 7.647379 2.043277 3.591864
Ar 3.419141 1.255737 6.023208
Ar 5.370567 5.569893 0.166590
Ar 7.264753 1.538579 9.996757
Ar 1.944101 0.758294 5.764857
Ar 8.535893 6.682960 6.718473
Ar 1.515638 6.762357 7.124951
10
Lattice="10.0 0 0 0 10.0 0 0 0 10.0" Properties=species:S:1:pos:R:3 pbc="T T T" Time=541
Ar 5.084238 8.803748 1.764862
Ar 6.028783 3.171097 1.594814
Ar 5.368054 7.546877 7.110383
Ar 5.161168 0.707911 2.229103
Ar 2.765744 9.973681 8.154636
Ar 4.890727 4.265460 0.510161
Ar 9.126629 8.801570 0.198718
Ar 6.579785 9.345431 9.782637
Ar 6.391799 8.702376 3.755545
Ar 0.008761 2.884094 9.433744
10
Lattice="10.0 0 0 0 10.0 0 0 0 10.0" Properties=species:S:1:pos:R:3 pbc="T T T" Time=542
Ar 1.541209 2.401760 4.708995
Ar 4.615381 9.705040 2.765762
Ar 1.164768 7.396341 8.355597
Ar 2.674958 9.372545 0.866341
Ar 2.112426 8.691651 0.286077
Ar 4.410880 2.961025 0.853732
Ar 0.988505 6.064561 0.400680
Ar 1.215389 7.932541 3.800404
Ar 4.247668 0.721758 0.792642
Ar 8.501889 9.005829 1.742540
10
Lattice="10.0 0 0 0 10.0 0 0 0 10.0" Properties=species:S:1:pos:R:3 pbc="T T T" Time=543
Ar 7.998174 5.999753 7.653123
Ar 3.201994 6.238972 3.936723
Ar 6.961482 7.245804 9.600810
Ar 0.188747 8.037199 9.503585
Ar 1.459108 7.409622 2.417518
Ar 3.931019 1.656604 1.197290
Ar 2.850383 3.327550 0.602642
Ar 5.850994 6.519651 7.818167
Ar 2.103541 2.741140 7.829745
Ar 6.995017 5.127564 4.051336
10
Lattice="10.0 0 0 0 10.0 0 0 0 10.0" Properties=species:S:1:pos:R:3 pbc="T T T" Time=544
Ar 4.455139 9.597745 0.597250
Ar 1.788610 2.772900 5.107694
Ar 2.758194 7.095268 0.846017
Ar 7.702145 6.701386 8.140438
Ar 0.806170 6.128053 4.549352
Ar 3.451159 0.352191 1.540847
Ar 4.712260 0.590536 0.804607
Ar 0.486598 5.106762 1.835931
Ar 9.959424 4.760526 4.866840
Ar 5.488144 1.249300 6.360131
10
Lattice="10.0 0 0 0 10.0 0 0 0 10.0" Properties=species:S:1:pos:R:3 pbc="T T T" Time=545
Ar 0.912114 3.195734 3.541374
Ar 0.375229 9.306827 6.278666
Ar 8.554910 6.944735 2.091233
Ar 5.215544 5.365573 6.777290
Ar 0.153230 4.846485 6.681184
Ar 2.971306 9.047767 1.884408
Ar 6.574131 7.853533 1.006570
Ar 5.122189 3.693872 5.853688
Ar 7.815306 6.779913 1.903934
Ar 3.981271 7.371035 8.668927
10
Lattice="10.0 0 0 0 10.0 0 0 0 10.0" Properties=species:S:1:pos:R:3 pbc="T T T" Time=546
Ar 7.369371 6.794550 6.485626
Ar 8.961848 5.840752 7.449638
Ar 4.351625 6.794203 3.336449
Ar 2.728942 4.029760 5.414142
Ar 9.500325 3.564975 8.813005
Ar 2.491290 7.743366 2.228085
Ar 8.435882 5.115680 1.208289
Ar 9.757780 2.280981 9.871444
Ar 5.671152 8.799245 8.941041
Ar 2.474399 3.492770 0.977722
10
Lattice="10.0 0 0 0 10.0 0 0 0 10.0" Properties=species:S:1:pos:R:3 pbc="T T T" Time=547
Ar 3.826628 0.393367 9.429879
Ar 7.548468 2.374677 8.620611
Ar 0.047301 6.621150 4.556079
Ar 0.242343 2.693967 4.051006
Ar 8.847420 2.283465 0.944826
Ar 2.011274 6.438964 2.571762
Ar 0.297612 2.377846 1.409992
Ar 4.393369 0.868068 3.889187
Ar 3.628058 0.841077 6.003751
Ar 0.967525 9.614506 3.286517
10
Lattice="10.0 0 0 0 10.0 0 0 0 10.0" Properties=species:S:1:pos:R:3 pbc="T T T" Time=548
Ar 0.283876 3.992190 2.374124
Ar 6.135097 8.908598 9.791588
Ar 5.742983 6.448096 5.775711
Ar 7.755743 1.358175 2.687869
Ar 8.194507 1.001995 3.076612
Ar 1.531254 5.134565 2.915436
Ar 2.159340 9.640012 1.611697
Ar 9.028967 9.455111 7.906967
Ar 1.584964 2.882910 3.066460
Ar 9.460653 5.736242 5.595313
10
Lattice="10.0 0 0 0 10.0 0 0 0 10.0" Properties=species:S:1:pos:R:3 pbc="T T T" Time=549
Ar 6.741123 7.591012 5.318371
Ar 4.721725 5.442519 0.962563
Ar 1.438663 6.275042 6.995345
Ar 5.269143 0.022383 1.324736
Ar 7.541495 9.720519 5.208367
Ar 1.051234 3.830166 3.259109
Ar 4.021169 6.902185 1.813430
Ar 3.664568 8.042155 1.924738
Ar 9.541868 4.924743 0.129177
Ar 7.953781 1.857978 7.904109
10
Lattice="10.0 0 0 0 10.0 0 0 0 10.0" Properties=species:S:1:pos:R:3 pbc="T T T" Time=550
Ar 3.198320 1.189828 8.262593
Ar 3.308353 1.976440 2.133538
Ar 7.134343 6.101987 8.214979
Ar 3.173690 8.369067 0.308156
Ar 6.497336 8.756568 6.993568
Ar 0.571244 2.525800 3.602793
Ar 5.882997 4.164358 2.015164
Ar 8.300169 6.629198 5.942510
Ar 7.498794 6.966550 7.191906
Ar 6.446908 7.979713 0.212906
10
Lattice="10.0 0 0 0 10.0 0 0 0 10.0" Properties=species:S:1:pos:R:3 pbc="T T T" Time=551
Ar 9.655515 4.788637 1.206815
Ar 1.894994 8.510333 3.304497
Ar 2.830023 5.928933 9.434613
Ar 1.078238 6.715753 9.291576
Ar 5.453180 7.792624 8.778770
Ar 0.091253 1.221435 3.946477
Ar 7.744879 1.426346 2.216892
Ar 2.935703 5.216451 9.960303
Ar 5.455720 9.008356 4.254635
Ar 4.940036 4.101449 2.521702
10
Lattice="10.0 0 0 0 10.0 0 0 0 10.0" Properties=species:S:1:pos:R:3 pbc="T T T" Time=552
Ar 6.112709 8.387446 4.151037
Ar 0.481635 5.044226 4.475457
Ar 8.525656 5.755768 0.654377
Ar 8.982786 5.062438 8.274995
Ar 4.409016 6.828694 0.563969
Ar 9.611262 9.917069 4.290162
Ar 9.606760 8.688335 2.418621
Ar 7.571294 3.803679 3.978006
Ar 3.412643 1.050282 1.317324
Ar 3.433163 0.223187 4.830501
10
Lattice="10.0 0 0 0 10.0 0 0 0 10.0" Properties=species:S:1:pos:R:3 pbc="T T T" Time=553
Ar 2.569903 1.986255 7.095260
Ar 9.068276 1.578119 5.646416
Ar 4.223201 5.569853 1.883542
Ar 6.887310 3.409137 7.258411
Ar 3.364852 5.864764 2.349168
Ar 9.131271 8.612703 4.633848
Ar 1.468641 5.950324 2.620349
Ar 2.204999 2.403644 7.986310
Ar 1.369567 3.092207 8.380014
Ar 1.926291 6.344923 7.139300
10
Lattice="10.0 0 0 0 10.0 0 0 0 10.0" Properties=species:S:1:pos:R:3 pbc="T T T" Time=554
Ar 9.027097 5.585063 0.039482
Ar 7.654918 8.112012 6.817375
Ar 9.920744 5.383940 3.112710
Ar 4.791834 1.755834 6.241824
Ar 2.320689 4.900835 4.134366
Ar 8.651281 7.308343 4.977541
Ar 3.330522 3.212309 2.822070
Ar 6.838703 1.003609 1.994614
Ar 9.326490 5.134133 5.442703
Ar 0.419419 2.466661 9.448100
10
Lattice="10.0 0 0 0 10.0 0 0 0 10.0" Properties=species:S:1:pos:R:3 pbc="T T T" Time=555
Ar 5.484003 9.184202 2.984419
Ar 6.241560 4.645905 7.988334
Ar 5.616927 5.198494 4.342616
Ar 2.696358 0.102532 5.225237
Ar 1.277911 3.936437 5.918823
Ar 8.171290 6.003981 5.321233
Ar 5.192378 0.474295 3.023794
Ar 1.472796 9.603159 6.002152
Ar 7.283312 7.176143 2.505444
Ar 8.912546 8.588398 1.756899
10
Lattice="10.0 0 0 0 10.0 0 0 0 10.0" Properties=species:S:1:pos:R:3 pbc="T T T" Time=556
Ar 1.940909 2.783342 5.929355
Ar 4.828198 1.179802 9.159300
Ar 1.313109 5.013049 5.572517
Ar 0.600882 8.449229 4.208650
Ar 0.235134 2.972042 7.703283
Ar 7.691301 4.699624 5.664918
Ar 7.054236 7.736277 3.225515
Ar 6.106890 8.202708 0.009689
Ar 5.240134 9.218146 9.568192
Ar 7.405674 4.710136 4.065699
10
Lattice="10.0 0 0 0 10.0 0 0 0 10.0" Properties=species:S:1:pos:R:3 pbc="T T T" Time=557
Ar 8.397860 6.382276 8.874286
Ar 3.414836 7.713698 0.330266
Ar 7.009289 4.827602 6.802417
Ar 8.505487 6.795960 3.192012
Ar 9.192357 2.007647 9.487743
Ar 7.211313 3.395266 6.008605
Ar 8.916047 4.998466 3.427242
Ar 0.740902 6.802224 4.017279
Ar 3.196953 1.260143 6.630941
Ar 5.898807 0.831878 6.374496
10
Lattice="10.0 0 0 0 10.0 0 0 0 10.0" Properties=species:S:1:pos:R:3 pbc="T T T" Time=558
Ar 4.854816 9.981205 1.819214
Ar 2.001471 4.247610 1.501229
Ar 2.705469 4.642162 8.032317
Ar 6.410092 5.142691 2.175374
Ar 8.149577 1.043252 1.272208
Ar 6.731337 2.090909 6.352361
Ar 0.777859 2.260655 3.628970
Ar 5.375015 5.401621 8.024919
Ar 1.153674 3.302244 3.693641
Ar 4.391928 6.953619 8.683222
10
Lattice="10.0 0 0 0 10.0 0 0 0 10.0" Properties=species:S:1:pos:R:3 pbc="T T T" Time=559
Ar 1.311772 3.580134 4.764143
Ar 0.588106 0.781521 2.672192
Ar 8.401639 4.456778 9.262246
Ar 4.314685 3.489451 1.158731
Ar 7.106797 0.078856 3.056672
Ar 6.251370 0.786496 6.696087
Ar 2.639675 9.522814 3.830700
Ar 0.009135 4.001021 2.032562
Ar 9.110392 5.344345 0.756342
Ar 2.885050 3.075359 0.991949
10
Lattice="10.0 0 0 0 10.0 0 0 0 10.0" Properties=species:S:1:pos:R:3 pbc="T T T" Time=560
Ar 7.768728 7.179063 7.709072
Ar 9.174742 7.315435 3.843152
Ar 4.097808 4.271392 0.492175
Ar 2.219279 1.836211 0.142087
Ar 6.064018 9.114461 4.841136
Ar 5.771403 9.482082 7.039812
Ar 4.501521 6.785053 4.032436
Ar 4.643267 2.600403 6.040198
Ar 7.067081 7.386364 7.819041
Ar 1.378162 9.197117 3.300682
10
Lattice="10.0 0 0 0 10.0 0 0 0 10.0" Properties=species:S:1:pos:R:3 pbc="T T T" Time=561
Ar 4.225685 0.777993 0.654002
Ar 7.761376 3.849348 5.014111
Ar 9.793965 4.085993 1.722082
Ar 0.123984 0.183003 9.125457
Ar 5.021238 8.150065 6.625600
Ar 5.291436 8.177669 7.383538
Ar 6.363368 4.047291 4.234173
Ar 9.277406 1.199777 0.047842
Ar 5.023774 9.428407 4.881752
Ar 9.871163 5.318843 5.609403
10
Lattice="10.0 0 0 0 10.0 0 0 0 10.0" Properties=species:S:1:pos:R:3 pbc="T T T" Time=562
Ar 0.472651 4.438963 3.631844
Ar 6.348010 0.383261 6.185070
Ar 5.490123 3.900595 2.951988
Ar 8.028688 8.529795 8.108826
Ar 3.978459 7.185670 8.410056
Ar 4.811465 6.873260 7.727270
Ar 8.225214 1.309528 4.435909
Ar 3.911544 9.799152 4.055487
Ar 3.190459 1.408404 1.911553
Ar 8.364165 1.440569 7.918123
10
Lattice="10.0 0 0 0 10.0 0 0 0 10.0" Properties=species:S:1:pos:R:3 pbc="T T T" Time=563
Ar 6.719616 8.099934 6.609687
Ar 4.934706 6.917163 7.356064
Ar 1.186281 3.715197 4.181894
Ar 5.933432 6.876539 7.092152
Ar 2.958972 6.223647 0.259855
Ar 4.308204 5.566470 8.005669
Ar 0.086996 8.571774 4.637609
Ar 8.545642 8.398573 8.063174
Ar 1.357145 3.388409 8.941344
Ar 6.857169 7.562297 0.226844
10
Lattice="10.0 0 0 0 10.0 0 0 0 10.0" Properties=species:S:1:pos:R:3 pbc="T T T" Time=564
Ar 2.966582 1.760904 9.587530
Ar 3.521400 3.451064 8.527059
Ar 6.882440 3.529799 5.411801
Ar 3.838176 5.223282 6.075479
Ar 1.939489 5.261623 2.109651
Ar 3.804938 4.259682 8.284072
Ar 1.948779 5.834020 4.839308
Ar 3.179741 6.997993 2.070862
Ar 9.523829 5.368415 5.971134
Ar 5.350175 3.684027 2.535566
10
Lattice="10.0 0 0 0 10.0 0 0 0 10.0" Properties=species:S:1:pos:R:3 pbc="T T T" Time=565
Ar 9.213602 5.421960 2.565334
Ar 2.109289 9.984973 9.697717
Ar 2.578598 3.344402 6.641707
Ar 1.741700 3.569995 5.059145
Ar 0.920005 4.299600 3.959450
Ar 3.301640 2.952830 8.562504
Ar 3.810562 3.096267 5.041006
Ar 7.813845 5.597415 6.078553
Ar 7.690514 7.348420 3.000923
Ar 3.843180 9.805757 4.844290
10
Lattice="10.0 0 0 0 10.0 0 0 0 10.0" Properties=species:S:1:pos:R:3 pbc="T T T" Time=566
Ar 5.460618 9.083003 5.543145
Ar 0.702345 6.533623 0.863943
Ar 8.274756 3.159004 7.871614
Ar 9.645229 1.916709 4.042808
Ar 9.900513 3.337567 5.809246
Ar 2.793177 1.631246 8.845367
Ar 5.672342 0.358516 5.242702
Ar 2.447957 4.196846 0.086244
Ar 5.857197 9.328425 0.030713
Ar 2.336185 5.927486 7.153014
10
Lattice="10.0 0 0 0 10.0 0 0 0 10.0" Properties=species:S:1:pos:R:3 pbc="T T T" Time=567
Ar 1.707633 2.744045 8.520954
Ar 9.295402 3.082273 2.030168
Ar 3.970918 2.973606 9.101553
Ar 7.548779 0.263385 3.026506
Ar 8.880975 2.375576 7.658978
Ar 2.284720 0.309661 9.128243
Ar 7.534144 7.620760 5.444386
Ar 7.082068 2.796278 4.093935
Ar 4.023877 1.308434 7.060504
Ar 0.829191 2.049215 9.461738
10
Lattice="10.0 0 0 0 10.0 0 0 0 10.0" Properties=species:S:1:pos:R:3 pbc="T T T" Time=568
Ar 7.954614 6.404886 1.498809
Ar 7.888458 9.630924 3.196394
Ar 9.667077 2.788207 0.331494
Ar 5.452328 8.610058 2.010199
Ar 7.861438 1.413590 9.508714
Ar 1.776262 8.988073 9.411118
Ar 9.395979 4.883206 5.646022
Ar 1.716180 1.395709 8.101626
Ar 2.190557 3.288442 4.090295
Ar 9.322197 8.170944 1.770461
10
Lattice="10.0 0 0 0 10.0 0 0 0 10.0" Properties=species:S:1:pos:R:3 pbc="T T T" Time=569
Ar 4.201670 0.065792 4.476578
Ar 6.481515 6.179575 4.362620
Ar 5.363243 2.602812 1.561439
Ar 3.355877 6.956728 0.993890
Ar 6.841899 0.451605 1.358447
Ar 1.267809 7.666477 9.693994
Ar 1.257814 2.145652 5.847658
Ar 6.350291 9.995143 2.109319
Ar 0.357240 5.268449 1.120082
Ar 7.815119 4.292615 4.079272
10
Lattice="10.0 0 0 0 10.0 0 0 0 10.0" Properties=species:S:1:pos:R:3 pbc="T T T" Time=570
Ar 0.448721 3.726692 7.454345
Ar 5.074570 2.728229 5.528849
Ar 1.059413 2.417420 2.791386
Ar 1.259424 5.303399 9.977581
Ar 5.822356 9.489616 3.208179
Ar 0.759355 6.344878 9.976870
Ar 3.119649 9.408098 6.049294
Ar 0.984402 8.594578 6.117011
Ar 8.523922 7.248455 8.149869
Ar 6.308049 0.414289 6.388083
10
Lattice="10.0 0 0 0 10.0 0 0 0 10.0" Properties=species:S:1:pos:R:3 pbc="T T T" Time=571
Ar 6.695771 7.387592 0.432113
Ar 3.667622 9.276889 6.695079
Ar 6.755580 2.232032 4.021333
Ar 9.162974 3.650068 8.961274
Ar 4.801788 8.526672 5.059478
Ar 0.250900 5.023282 0.259744
Ar 4.981484 6.670544 6.250930
Ar 5.619541 7.194964 0.123135
Ar 6.690604 9.228461 5.179657
Ar 4.800982 6.535958 8.696893
10
Lattice="10.0 0 0 0 10.0 0 0 0 10.0" Properties=species:S:1:pos:R:3 pbc="T T T" Time=572
Ar 2.942822 1.048491 3.409880
Ar 2.260673 5.825550 7.861309
Ar 2.451747 2.046643 5.251279
Ar 7.066585 1.996613 7.944967
Ar 3.781220 7.563728 6.910777
Ar 9.742385 3.701810 0.542619
Ar 6.843325 3.932992 6.452566
Ar 0.254673 5.795348 4.129258
Ar 4.857284 1.208466 2.209444
Ar 3.293917 2.657626 1.005703
10
Lattice="10.0 0 0 0 10.0 0 0 0 10.0" Properties=species:S:1:pos:R:3 pbc="T T T" Time=573
Ar 9.189939 4.709403 6.387667
Ar 0.853717 2.374217 9.027547
Ar 8.147915 1.861255 6.481226
Ar 4.970191 0.343152 6.928655
Ar 2.760642 6.600782 8.762060
Ar 9.233876 2.380345 0.825500
Ar 8.705167 1.195431 6.654203
Ar 4.889759 4.395736 8.135396
Ar 3.023981 3.188478 9.239232
Ar 1.786831 8.779278 3.314485
10
Lattice="10.0 0 0 0 10.0 0 0 0 10.0" Properties=species:S:1:pos:R:3 pbc="T T T" Time=574
Ar 5.437052 8.370308 9.365450
Ar 9.446758 8.922881 0.193788
Ar 3.844079 1.675873 7.711181
Ar 2.873797 8.689687 5.912345
Ar 1.740066 5.637838 0.613342
Ar 8.725366 1.058880 1.108381
Ar 0.567009 8.457874 6.855837
Ar 9.524845 2.996124 2.141534
Ar 1.190688 5.168487 6.269019
Ar 0.279742 4.900933 5.623262
10
Lattice="10.0 0 0 0 10.0 0 0 0 10.0" Properties=species:S:1:pos:R:3 pbc="T T T" Time=575
Ar 1.684165 2.031214 2.343233
Ar 8.039797 5.471543 1.360024
Ar 9.551421 1.477134 8.944607
Ar 0.777403 7.036221 4.896035
Ar 0.719490 4.674895 2.464624
Ar 8.216852 9.737415 1.391265
Ar 2.417673 5.733671 7.054000
Ar 4.159934 1.596514 6.147670
Ar 9.357398 7.148497 3.298807
Ar 8.772654 1.022587 7.932040
10
Lattice="10.0 0 0 0 10.0 0 0 0 10.0" Properties=species:S:1:pos:R:3 pbc="T T T" Time=576
Ar 7.931278 5.692121 5.321016
Ar 6.632837 2.020201 2.526260
Ar 5.258764 1.278395 0.178032
Ar 8.681013 5.382756 3.879723
Ar 9.698914 3.711952 4.315906
Ar 7.708335 8.415949 1.674149
Ar 4.268334 3.009469 7.252165
Ar 8.795026 0.196908 0.153809
Ar 7.524200 9.128532 0.328661
Ar 7.265473 7.144215 0.240753
10
Lattice="10.0 0 0 0 10.0 0 0 0 10.0" Properties=species:S:1:pos:R:3 pbc="T T T" Time=577
Ar 4.178392 9.353025 8.298799
Ar 5.225876 8.568858 3.692493
Ar 0.966217 1.079721 1.411601
Ar 6.584629 3.729291 2.863420
Ar 8.678339 2.749010 6.167188
Ar 7.199818 7.094482 1.957033
Ar 6.118995 0.285266 7.450331
Ar 3.430117 8.797303 4.159948
Ar 5.690994 1.108570 7.358508
Ar 5.758181 3.265778 2.549321
10
Lattice="10.0 0 0 0 10.0 0 0 0 10.0" Properties=species:S:1:pos:R:3 pbc="T T T" Time=578
Ar 0.425476 3.013943 1.276638
Ar 3.818915 5.117516 4.858729
Ar 6.673669 0.881048 2.645169
Ar 4.488266 2.075829 1.847057
Ar 7.657774 1.786051 8.018473
Ar 6.691316 5.772980 2.240023
Ar 7.969656 7.561064 7.648497
Ar 8.065256 7.397738 8.166078
Ar 3.857733 3.088634 4.388272
Ar 4.250883 9.387309 4.857873
10
Lattice="10.0 0 0 0 10.0 0 0 0 10.0" Properties=species:S:1:pos:R:3 pbc="T T T" Time=579
Ar 6.672552 6.674856 4.254481
Ar 2.411980 1.666172 6.024958
Ar 2.381120 0.682374 3.878737
Ar 2.389848 0.421215 0.829913
Ar 6.637209 0.823092 9.869759
Ar 6.182816 4.451477 2.523012
Ar 9.816650 4.843929 7.845872
Ar 2.700368 5.998177 2.172216
Ar 2.028147 5.061636 1.418823
Ar 2.745638 5.509993 7.167206
10
Lattice="10.0 0 0 0 10.0 0 0 0 10.0" Properties=species:S:1:pos:R:3 pbc="T T T" Time=580
Ar 2.919628 0.335768 7.232324
Ar 1.005046 8.214840 7.191190
Ar 8.088574 0.483699 5.112305
Ar 0.291429 8.766602 9.812767
Ar 5.616645 9.860134 1.721044
Ar 5.674315 3.129975 2.806002
Ar 3.562126 8.883388 8.321627
Ar 5.436997 7.842021 5.899975
Ar 0.198561 7.034625 8.449373
Ar 1.240392 1.632676 9.476539
10
Lattice="10.0 0 0 0 10.0 0 0 0 10.0" Properties=species:S:1:pos:R:3 pbc="T T T" Time=581
Ar 9.166705 3.996682 0.210168
Ar 9.598111 4.763511 8.357427
Ar 3.796029 0.285022 6.345870
Ar 8.193010 7.111988 8.795620
Ar 4.596080 8.897176 3.572329
Ar 5.165814 1.808471 3.088990
Ar 7.307601 2.922847 8.797381
Ar 8.173714 9.685988 9.627832
Ar 8.368886 9.007492 5.479824
Ar 9.735148 7.755359 1.785872
10
Lattice="10.0 0 0 0 10.0 0 0 0 10.0" Properties=species:S:1:pos:R:3 pbc="T T T" Time=582
Ar 5.413775 7.657615 3.187998
Ar 8.191185 1.312195 9.523645
Ar 9.503483 0.086345 7.579434
Ar 6.094590 5.457381 7.778481
Ar 3.575516 7.934217 5.423614
Ar 4.657313 0.486968 3.371978
Ar 1.053086 6.962288 9.273150
Ar 0.910432 1.529954 3.355689
Ar 6.539200 0.980336 2.510286
Ar 8.229903 3.878044 4.095206
10
Lattice="10.0 0 0 0 10.0 0 0 0 10.0" Properties=species:S:1:pos:R:3 pbc="T T T" Time=583
Ar 1.660844 1.318542 6.165844
Ar 6.784265 7.860884 0.689849
Ar 5.210937 9.887668 8.812999
Ar 3.996169 3.802774 6.761341
Ar 2.554952 6.971257 7.274899
Ar 4.148813 9.165465 3.654967
Ar 4.798567 1.001728 9.748916
Ar 3.647150 3.373922 7.083546
Ar 4.709514 2.953179 9.540748
Ar 6.724659 0.000728 6.404540
10
Lattice="10.0 0 0 0 10.0 0 0 0 10.0" Properties=species:S:1:pos:R:3 pbc="T T T" Time=584
Ar 7.907914 4.979468 9.143689
Ar 5.377343 4.409574 1.856054
Ar 0.918392 9.688991 0.046562
Ar 1.897748 2.148166 5.744202
Ar 1.534386 6.008296 9.126185
Ar 3.640302 7.843962 3.937959
Ar 8.544049 5.041168 0.224683
Ar 6.383867 5.217891 0.811403
Ar 2.879839 4.926026 6.571205
Ar 5.219414 6.123414 8.713874
10
Lattice="10.0 0 0 0 10.0 0 0 0 10.0" Properties=species:S:1:pos:R:3 pbc="T T T" Time=585
Ar 4.154984 8.640394 2.121533
Ar 3.970422 0.958264 3.022259
Ar 6.625876 9.490231 1.280057
Ar 8.962160 9.464905 5.499909
Ar 0.513820 5.045336 0.977471
Ar 3.131790 6.522458 4.220952
Ar 2.289501 9.080669 0.700521
Ar 9.957751 8.090514 3.766410
Ar 1.050163 6.898893 3.601664
Ar 3.714171 2.246099 1.023207
10
Lattice="10.0 0 0 0 10.0 0 0 0 10.0" Properties=species:S:1:pos:R:3 pbc="T T T" Time=586
Ar 0.401938 2.301306 5.099167
Ar 2.563462 7.506923 4.188505
Ar 2.333361 9.291472 2.513553
Ar 6.026572 6.781643 5.255616
Ar 9.493254 4.082377 2.828757
Ar 2.623279 5.200955 4.503945
Ar 6.035082 3.120181 1.176562
Ar 3.531661 0.963168 6.721389
Ar 9.220488 8.871760 0.632121
Ar 2.208926 8.368786 3.332538
10
Lattice="10.0 0 0 0 10.0 0 0 0 10.0" Properties=species:S:1:pos:R:3 pbc="T T T" Time=587
Ar 6.648896 5.962213 8.076802
Ar 1.156503 4.055583 5.354757
Ar 8.040847 9.092713 3.747047
Ar 3.090982 4.098384 5.011326
Ar 8.472688 3.119417 4.680043
Ar 2.114777 3.879449 4.786941
Ar 9.780659 7.159693 1.652600
Ar 7.105525 3.835873 9.676371
Ar 7.390853 0.844576 7.662570
Ar 0.703680 4.491476 5.641863
10
Lattice="10.0 0 0 0 10.0 0 0 0 10.0" Properties=species:S:1:pos:R:3 pbc="T T T" Time=588
Ar 2.895853 9.623120 1.054437
Ar 9.749611 0.604085 6.521171
Ar 3.748358 8.894135 4.980381
Ar 0.155392 1.415125 4.767037
Ar 7.452122 2.156457 6.531328
Ar 1.606275 2.557937 5.069938
Ar 3.526235 1.199206 2.128637
Ar 0.679389 6.708577 2.631354
Ar 5.561216 2.817393 4.693018
Ar 9.198344 0.614150 7.951187
10
Lattice="10.0 0 0 0 10.0 0 0 0 10.0" Properties=species:S:1:pos:R:3 pbc="T T T" Time=589
Ar 9.142810 3.284028 4.032072
Ar 7.979459 7.502228 7.917895
Ar 9.455868 8.695558 6.213715
Ar 7.218443 8.731555 4.522425
Ar 6.431553 1.193497 8.382612
Ar 1.099215 1.236716 5.353218
Ar 7.271812 5.238718 2.604674
Ar 4.253253 9.581279 5.586338
Ar 3.731580 4.790209 1.723466
Ar 8.056187 6.387205 0.030240
10
Lattice="10.0 0 0 0 10.0 0 0 0 10.0" Properties=species:S:1:pos:R:3 pbc="T T T" Time=590
Ar 5.389762 6.944923 7.009697
Ar 6.209341 4.400360 9.314542
Ar 5.163378 8.496980 7.447049
Ar 4.281475 6.047976 4.277790
Ar 5.410982 0.230538 0.233896
Ar 0.592179 9.915513 5.636502
Ar 1.017394 9.278244 3.080720
Ar 7.827117 2.453982 8.541322
Ar 1.901943 6.763026 8.753913
Ar 6.913994 2.160259 2.109391
10
Lattice="10.0 0 0 0 10.0 0 0 0 10.0" Properties=species:S:1:pos:R:3 pbc="T T T" Time=591
Ar 1.636713 0.605818 9.987322
Ar 4.439221 1.298492 0.711187
Ar 0.870891 8.298403 8.680382
Ar 1.344507 3.364397 4.033154
Ar 4.390410 9.267579 2.085181
Ar 0.085143 8.594310 5.919786
Ar 4.762975 3.317770 3.556766
Ar 1.400981 5.326684 1.496307
Ar 0.072305 8.735842 5.784360
Ar 5.771802 7.933311 4.188545
10
Lattice="10.0 0 0 0 10.0 0 0 0 10.0" Properties=species:S:1:pos:R:3 pbc="T T T" Time=592
Ar 7.883675 4.266646 2.964928
Ar 2.669100 8.196626 2.107833
Ar 6.578395 8.099893 9.913733
Ar 8.407539 0.680818 3.788517
Ar 3.369839 8.304620 3.936466
Ar 9.578106 7.273108 6.203073
Ar 8.508557 7.357296 4.032810
Ar 4.974847 8.199385 4.451290
Ar 8.242667 0.708659 2.814807
Ar 4.629611 3.706363 6.267700
10
Lattice="10.0 0 0 0 10.0 0 0 0 10.0" Properties=species:S:1:pos:R:3 pbc="T T T" Time=593
Ar 4.130636 7.927475 5.942536
Ar 0.898979 5.094765 3.504476
Ar 2.285899 7.901382 1.147086
Ar 5.470570 7.997239 3.543881
Ar 2.349266 7.341658 5.787752
Ar 8.836872 6.286323 6.191855
Ar 2.254140 1.396821 4.508855
Ar 8.548712 1.072086 7.406272
Ar 6.647226 2.347059 0.139756
Ar 3.487420 9.479415 8.346856
10
Lattice="10.0 0 0 0 10.0 0 0 0 10.0" Properties=species:S:1:pos:R:3 pbc="T T T" Time=594
Ar 0.377597 1.588304 8.920142
Ar 9.128851 1.992902 4.901100
Ar 7.993402 7.702870 2.380439
Ar 2.533099 5.313744 3.296281
Ar 1.328648 6.378700 7.639041
Ar 8.095640 5.299537 6.180642
Ar 5.999720 5.436347 4.984895
Ar 2.122631 3.944783 0.361273
Ar 5.052287 3.985375 7.467668
Ar 2.345229 5.252466 0.426013
10
Lattice="10.0 0 0 0 10.0 0 0 0 10.0" Properties=species:S:1:pos:R:3 pbc="T T T" Time=595
Ar 6.624584 5.249141 1.897752
Ar 7.358723 8.891038 6.297723
Ar 3.700906 7.504358 3.613791
Ar 9.595630 2.630250 3.048680
Ar 0.308004 5.415734 9.490327
Ar 7.354408 4.312752 6.169429
Ar 9.745301 9.475872 5.460935
Ar 5.696550 6.817481 3.316273
Ar 3.457348 5.623690 4.795581
Ar 1.203038 1.025519 2.505170
10
Lattice="10.0 0 0 0 10.0 0 0 0 10.0" Properties=species:S:1:pos:R:3 pbc="T T T" Time=596
Ar 2.871570 8.909978 4.875362
Ar 5.588595 5.789175 7.694346
Ar 9.408409 7.305847 4.847144
Ar 6.658161 9.946756 2.801081
Ar 9.287360 4.452769 1.341613
Ar 6.613180 3.325966 6.158218
Ar 3.490878 3.515399 5.936973
Ar 9.270433 9.689972 6.271263
Ar 1.862408 7.262005 2.123494
Ar 0.060882 6.798778 4.584337
10
Lattice="10.0 0 0 0 10.0 0 0 0 10.0" Properties=species:S:1:pos:R:3 pbc="T T T" Time=597
Ar 9.118559 2.570810 7.852967
Ar 3.818464 2.687311 9.090970
Ar 5.115903 7.107346 6.080494
Ar 3.720687 7.263266 2.553483
Ar 8.266716 3.489803 3.192899
Ar 5.871952 2.339180 6.147008
Ar 7.236457 7.554925 6.413009
Ar 2.844326 2.562465 9.226254
Ar 0.267466 8.900313 9.451412
Ar 8.918731 2.572032 6.663502
10
Lattice="10.0 0 0 0 10.0 0 0 0 10.0" Properties=species:S:1:pos:R:3 pbc="T T T" Time=598
Ar 5.365548 6.231642 0.830573
Ar 2.048333 9.585447 0.487594
Ar 0.841546 6.894738 7.306532
Ar 0.783214 4.579776 2.305885
Ar 7.246072 2.526838 5.044184
Ar 5.130724 1.352394 6.135797
Ar 0.982036 1.594452 6.889046
Ar 6.418219 5.434960 2.181247
Ar 8.672525 0.538620 6.779329
Ar 7.758429 8.359391 8.749978
10
Lattice="10.0 0 0 0 10.0 0 0 0 10.0" Properties=species:S:1:pos:R:3 pbc="T T T" Time=599
Ar 1.612575 9.892474 3.808402
Ar 0.275429 6.483229 1.884604
Ar 6.567179 6.682129 8.532569
Ar 7.845740 1.896287 2.058287
Ar 6.225428 1.563872 6.895470
Ar 4.389496 0.365607 6.124585
Ar 4.727623 5.633981 7.365083
Ar 9.994885 8.307810 5.135855
Ar 7.077584 2.176927 4.107246
Ar 6.598090 4.146750 0.836231
10
Lattice="10.0 0 0 0 10.0 0 0 0 10.0" Properties=species:S:1:pos:R:3 pbc="T T T" Time=600
Ar 7.859587 3.553318 6.786212
Ar 8.502525 3.381010 3.281615
Ar 2.292813 6.469519 9.758606
Ar 4.908267 9.212797 1.810689
Ar 5.204785 0.600908 8.746753
Ar 3.648266 9.378820 6.113375
Ar 8.473214 9.673511 7.841121
Ar 3.571565 1.180649 8.090482
Ar 5.482641 3.815233 1.435163
Ar 5.437751 9.934109 2.922485
10
Lattice="10.0 0 0 0 10.0 0 0 0 10.0" Properties=species:S:1:pos:R:3 pbc="T T T" Time=601
Ar 4.106601 7.214163 9.764020
Ar 6.729622 0.278791 4.678624
Ar 8.018451 6.256912 0.984645
Ar 1.970797 6.529305 1.563082
Ar 4.184147 9.637948 0.598040
Ar 2.907031 8.392029 6.102163
Ar 2.218801 3.713039 8.317157
Ar 7.148244 4.053486 1.045110
Ar 3.887695 5.453540 8.763087
Ar 4.277411 5.721468 5.008738
10
Lattice="10.0 0 0 0 10.0 0 0 0 10.0" Properties=species:S:1:pos:R:3 pbc="T T T" Time=602
Ar 0.353614 0.875008 2.741829
Ar 4.956718 7.176573 6.075634
Ar 3.744089 6.044304 2.210685
Ar 9.033271 3.845736 1.315358
Ar 3.163536 8.674978 2.449337
Ar 2.165795 7.405236 6.090949
Ar 5.964389 7.752567 8.793192
Ar 0.724896 6.926334 3.999730
Ar 2.292749 7.091847 6.091012
Ar 3.117128 1.508905 7.095110
10
Lattice="10.0 0 0 0 10.0 0 0 0 10.0" Properties=species:S:1:pos:R:3 pbc="T T T" Time=603
Ar 6.600630 4.535865 5.719644
Ar 3.183815 4.074354 7.472644
Ar 9.469728 5.831702 3.436723
Ar 6.095744 1.162166 1.067635
Ar 2.142925 7.712011 4.300636
Ar 1.424559 6.418443 6.079734
Ar 9.709973 1.792091 9.269227
Ar 4.301546 9.799177 6.954349
Ar 0.697804 8.730144 3.418929
Ar 1.956845 7.296340 9.181481
10
Lattice="10.0 0 0 0 10.0 0 0 0 10.0" Properties=species:S:1:pos:R:3 pbc="T T T" Time=604
Ar 2.847647 8.196721 8.697459
Ar 1.410916 0.972135 8.869653
Ar 5.195369 5.619098 4.662762
Ar 3.158216 8.478597 0.819912
Ar 1.122315 6.749047 6.151934
Ar 5.491217 8.461642 7.252519
Ar 3.455558 5.831616 9.745263
Ar 7.878192 2.672019 9.908965
Ar 4.294964 7.338450 9.562853
Ar 0.796562 3.083776 1.267853
10
Lattice="10.0 0 0 0 10.0 0 0 0 10.0" Properties=species:S:1:pos:R:3 pbc="T T T" Time=605
Ar 9.094663 1.857578 1.675274
Ar 9.638017 7.869915 0.266662
Ar 0.921008 5.406492 5.888800
Ar 0.220689 5.795028 0.572189
Ar 0.101721 5.786077 8.003236
Ar 9.557873 0.504836 8.425308
Ar 7.201143 9.871141 0.221298
Ar 1.454838 5.544862 2.863580
Ar 7.892110 5.946768 5.706768
Ar 9.636279 8.871212 3.354225
10
Lattice="10.0 0 0 0 10.0 0 0 0 10.0" Properties=species:S:1:pos:R:3 pbc="T T T" Time=606
Ar 5.341656 5.518447 4.653066
Ar 7.865117 4.767696 1.663671
Ar 6.646648 5.193886 7.114837
Ar 7.283154 3.111470 0.324487
Ar 9.081126 4.823106 9.854537
Ar 3.624530 2.548032 9.598095
Ar 0.946706 3.910621 0.697339
Ar 5.031483 8.417704 5.818195
Ar 1.489307 4.555106 1.850682
Ar 8.475997 4.658649 5.440597
10
Lattice="10.0 0 0 0 10.0 0 0 0 10.0" Properties=species:S:1:pos:R:3 pbc="T T T" Time=607
Ar 1.588650 9.179316 7.630859
Ar 6.092216 1.665486 3.060678
Ar 2.372291 4.981279 8.340870
Ar 4.345621 0.427903 0.076787
Ar 8.060530 3.860136 1.705841
Ar 7.691188 4.591228 0.770881
Ar 4.692267 7.950101 1.173381
Ar 8.608130 1.290545 8.772812
Ar 5.086503 3.163443 7.994595
Ar 7.315714 0.446086 7.526971
10
Lattice="10.0 0 0 0 10.0 0 0 0 10.0" Properties=species:S:1:pos:R:3 pbc="T T T" Time=608
Ar 7.835642 2.840186 0.608650
Ar 4.319310 8.563283 4.457699
Ar 8.097932 4.768673 9.566905
Ar 1.408083 7.744326 9.829082
Ar 7.039934 2.897172 3.557133
Ar 1.757847 6.634423 1.943666
Ar 8.437778 1.989510 1.649303
Ar 2.184777 4.163388 1.727429
Ar 8.683757 1.771849 4.138632
Ar 6.155435 6.233522 9.613343
10
Lattice="10.0 0 0 0 10.0 0 0 0 10.0" Properties=species:S:1:pos:R:3 pbc="T T T" Time=609
Ar 4.082635 6.501055 3.586440
Ar 2.546404 5.461080 5.854721
Ar 3.823573 4.556066 0.792941
Ar 8.470544 5.060750 9.581377
Ar 6.019410 1.934067 5.408606
Ar 5.824435 8.677760 3.116272
Ar 2.183288 6.028916 2.125226
Ar 5.761437 7.036239 4.682058
Ar 2.281011 0.380255 0.282668
Ar 4.995143 2.020949 1.699702
10
Lattice="10.0 0 0 0 10.0 0 0 0 10.0" Properties=species:S:1:pos:R:3 pbc="T T T" Time=610
Ar 0.329574 0.161990 6.564144
Ar 0.773498 2.358876 7.251743
Ar 9.549218 4.343465 2.018972
Ar 5.533004 2.377177 9.333667
Ar 4.998873 0.970972 7.260078
Ar 9.891022 0.721099 4.288881
Ar 5.928853 0.068248 2.601234
Ar 9.338097 9.909086 7.636686
Ar 5.878277 8.988653 6.426711
Ar 3.834848 7.808380 3.786061
10
Lattice="10.0 0 0 0 10.0 0 0 0 10.0" Properties=species:S:1:pos:R:3 pbc="T T T" Time=611
Ar 6.576505 3.822922 9.541842
Ar 9.000592 9.256672 8.648766
Ar 5.274865 4.130864 3.245001
Ar 2.595465 9.693605 9.085957
Ar 3.978335 0.007876 9.111550
Ar 3.957612 2.764443 5.461486
Ar 9.674412 4.107580 3.077240
Ar 2.914769 2.781931 0.591328
Ar 9.475542 7.597050 2.570755
Ar 2.674553 3.595809 5.872421
10
Lattice="10.0 0 0 0 10.0 0 0 0 10.0" Properties=species:S:1:pos:R:3 pbc="T T T" Time=612
Ar 2.823519 7.483869 2.519454
Ar 7.227687 6.154475 0.045791
Ar 1.000511 3.918262 4.471029
Ar 9.657926 7.010034 8.838250
Ar 2.957795 9.044785 0.963022
Ar 8.024200 4.807789 6.634085
Ar 3.419972 8.146912 3.553246
Ar 6.491358 5.654753 3.546059
Ar 3.072809 6.205443 8.714797
Ar 1.514258 9.383238 7.958781
10
Lattice="10.0 0 0 0 10.0 0 0 0 10.0" Properties=species:S:1:pos:R:3 pbc="T T T" Time=613
Ar 9.070533 1.144815 5.497066
Ar 5.454782 3.052278 1.442816
Ar 6.726159 3.705661 5.697057
Ar 6.720235 4.326428 8.590540
Ar 1.937408 8.081727 2.814496
Ar 2.090855 6.851090 7.806662
Ar 7.165531 2.186245 4.029252
Ar 0.067946 8.527577 6.500791
Ar 6.670077 4.813835 4.858838
Ar 0.353895 5.170712 0.045162
10
Lattice="10.0 0 0 0 10.0 0 0 0 10.0" Properties=species:S:1:pos:R:3 pbc="T T T" Time=614
Ar 5.317464 4.805663 8.474542
Ar 3.681876 9.950081 2.839842
Ar 2.451807 3.493060 6.923084
Ar 3.782544 1.642822 8.342829
Ar 0.917021 7.118677 4.665963
Ar 6.157511 8.894391 8.979240
Ar 0.911172 6.225667 4.505402
Ar 3.644534 1.400400 9.455523
Ar 0.267345 3.422227 1.002880
Ar 9.193531 0.958186 2.131543
10
Lattice="10.0 0 0 0 10.0 0 0 0 10.0" Properties=species:S:1:pos:R:3 pbc="T T T" Time=615
Ar 1.564398 8.466512 1.452020
Ar 1.908969 6.847883 4.236867
Ar 8.177460 3.280326 8.149220
Ar 0.844853 8.959216 8.095120
Ar 9.896634 6.155627 6.517430
Ar 0.224167 0.937692 0.151818
Ar 4.656814 0.265085 4.981546
Ar 7.221122 4.273223 2.410255
Ar 3.864606 2.030758 7.146817
Ar 8.033168 6.745660 4.217924
10
Lattice="10.0 0 0 0 10.0 0 0 0 10.0" Properties=species:S:1:pos:R:3 pbc="T T T" Time=616
Ar 7.811331 2.127361 4.429497
Ar 0.136062 3.745686 5.633893
Ar 3.903111 3.067593 9.375354
Ar 7.907177 6.275633 7.847302
Ar 8.876168 5.180521 8.366730
Ar 4.290825 2.980992 1.324396
Ar 8.402534 4.316558 5.459856
Ar 0.797696 7.146022 5.365095
Ar 7.461867 0.639291 3.290754
Ar 6.872804 2.533133 6.304306
10
Lattice="10.0 0 0 0 10.0 0 0 0 10.0" Properties=species:S:1:pos:R:3 pbc="T T T" Time=617
Ar 4.058266 5.788209 7.406975
Ar 8.363156 0.643488 7.030918
Ar 9.628763 2.854861 0.601488
Ar 4.969501 3.592049 7.599484
Ar 7.855702 4.205415 0.216030
Ar 8.357481 5.024293 2.496975
Ar 2.148255 8.368031 5.938166
Ar 4.374269 0.018820 8.319936
Ar 1.059128 9.247824 9.434693
Ar 5.712439 8.320606 8.390687
10
Lattice="10.0 0 0 0 10.0 0 0 0 10.0" Properties=species:S:1:pos:R:3 pbc="T T T" Time=618
Ar 0.305208 9.449071 0.384456
Ar 6.590282 7.541280 8.427946
Ar 5.354410 2.642129 1.827604
Ar 2.031765 0.908532 7.351635
Ar 6.835296 3.230242 2.065364
Ar 2.424141 7.067594 3.669572
Ar 5.893948 2.419519 6.416472
Ar 7.950844 2.891620 1.274776
Ar 4.656384 7.856337 5.578615
Ar 4.552067 4.108079 0.477080
10
Lattice="10.0 0 0 0 10.0 0 0 0 10.0" Properties=species:S:1:pos:R:3 pbc="T T T" Time=619
Ar 6.552148 3.109937 3.361936
Ar 4.817408 4.439072 9.824974
Ar 1.080064 2.429392 3.053720
Ar 9.094031 8.225011 7.103786
Ar 5.814883 2.255072 3.914692
Ar 6.490802 9.110896 4.842173
Ar 9.639641 6.471007 6.894777
Ar 1.527412 5.764427 4.229616
Ar 8.253640 6.464850 1.722539
Ar 3.391701 9.895544 2.563474
10
Lattice="10.0 0 0 0 10.0 0 0 0 10.0" Properties=species:S:1:pos:R:3 pbc="T T T" Time=620
Ar 2.799088 6.770802 6.339416
Ar 3.044535 1.336865 1.222003
Ar 6.805651 2.216620 4.279833
Ar 6.156297 5.541490 6.855937
Ar 4.794411 1.279969 5.764124
Ar 0.557462 1.154199 6.014774
Ar 3.385334 0.522496 7.373082
Ar 5.104111 8.637196 7.184364
Ar 1.850896 5.073364 7.866462
Ar 2.231330 5.683017 4.649860
10
Lattice="10.0 0 0 0 10.0 0 0 0 10.0" Properties=species:S:1:pos:R:3 pbc="T T T" Time=621
Ar 9.046168 0.431830 9.316792
Ar 1.271661 8.234657 2.619031
Ar 2.531237 2.003848 5.505946
Ar 3.218555 2.857998 6.608092
Ar 3.773800 0.304704 7.613660
Ar 4.624122 3.197501 7.187375
Ar 7.131035 4.573955 7.851384
Ar 8.680811 1.509965 0.139113
Ar 5.448153 3.681877 4.010386
Ar 1.070958 1.470489 6.736245
10
Lattice="10.0 0 0 0 10.0 0 0 0 10.0" Properties=species:S:1:pos:R:3 pbc="T T T" Time=622
Ar 5.293252 4.092868 2.294175
Ar 9.498787 5.132449 4.016059
Ar 8.256825 1.791077 6.732057
Ar 0.280813 0.174506 6.360246
Ar 2.753192 9.329441 9.463192
Ar 8.690781 5.240803 8.359976
Ar 0.876731 8.625414 8.329691
Ar 2.257513 4.382732 3.093862
Ar 9.045408 2.290388 0.154312
Ar 9.910584 7.257955 8.822619
10
Lattice="10.0 0 0 0 10.0 0 0 0 10.0" Properties=species:S:1:pos:R:3 pbc="T T T" Time=623
Ar 1.540379 7.753778 5.271463
Ar 7.725914 2.030241 5.413087
Ar 3.982384 1.578259 7.958088
Ar 7.343031 7.491049 6.112433
Ar 1.732585 8.354175 1.312726
Ar 2.757524 7.284126 9.532612
Ar 4.622427 2.676874 8.807999
Ar 5.834173 7.255625 6.048707
Ar 2.642663 0.898899 6.298238
Ar 8.750191 3.045414 0.909005
10
Lattice="10.0 0 0 0 10.0 0 0 0 10.0" Properties=species:S:1:pos:R:3 pbc="T T T" Time=624
Ar 7.787507 1.414689 8.248750
Ar 5.953039 8.928034 6.810116
Ar 9.707940 1.365443 9.184120
Ar 4.405250 4.807591 5.864616
Ar 0.711984 7.378911 3.162264
Ar 6.824264 9.327445 0.705247
Ar 8.368144 6.728365 9.286294
Ar 9.410833 0.128517 9.003552
Ar 6.239918 9.507409 2.442164
Ar 7.589776 8.832842 2.995404
10
Lattice="10.0 0 0 0 10.0 0 0 0 10.0" Properties=species:S:1:pos:R:3 pbc="T T T" Time=625
Ar 4.034634 5.075599 1.226037
Ar 4.180165 5.825827 8.207144
Ar 5.433459 1.152556 0.410100
Ar 1.467572 2.124150 5.616803
Ar 9.691380 6.403650 5.011806
Ar 0.891007 1.370761 1.877877
Ar 2.113904 0.779930 9.764646
Ar 2.987390 3.001394 1.958393
Ar 9.837169 8.115918 8.586084
Ar 6.429361 4.620269 5.081804
10
Lattice="10.0 0 0 0 10.0 0 0 0 10.0" Properties=species:S:1:pos:R:3 pbc="T T T" Time=626
Ar 0.281745 8.736516 4.203316
Ar 2.407290 2.723619 9.604172
Ar 1.159041 0.939890 1.636117
Ar 8.529893 9.440708 5.368991
Ar 8.670777 5.428389 6.861349
Ar 4.957758 3.414074 3.050474
Ar 5.859665 4.831495 0.242998
Ar 6.563902 5.874044 4.913204
Ar 3.434344 6.724461 4.730008
Ar 5.269011 0.407664 7.168234
10
Lattice="10.0 0 0 0 10.0 0 0 0 10.0" Properties=species:S:1:pos:R:3 pbc="T T T" Time=627
Ar 6.528857 2.397437 7.180594
Ar 0.634415 9.621412 1.001200
Ar 6.884624 0.727224 2.862135
Ar 5.592215 6.757267 5.121178
Ar 7.650173 4.453128 8.710891
Ar 9.024505 5.457387 4.223074
Ar 9.605426 8.883059 0.721346
Ar 0.140414 8.746692 7.868018
Ar 7.031520 5.333005 0.873931
Ar 4.108661 6.195059 9.254663
10
Lattice="10.0 0 0 0 10.0 0 0 0 10.0" Properties=species:S:1:pos:R:3 pbc="T T T" Time=628
Ar 2.775976 6.058354 0.157867
Ar 8.861540 6.519205 2.398226
Ar 2.610207 0.514557 4.088152
Ar 2.654530 4.073828 4.873371
Ar 6.629571 3.477867 0.560434
Ar 3.091251 7.500700 5.395674
Ar 3.351188 2.934622 1.199694
Ar 3.716926 1.619341 0.822830
Ar 0.628695 3.941548 7.017855
Ar 2.948311 1.982454 1.341093
10
Lattice="10.0 0 0 0 10.0 0 0 0 10.0" Properties=species:S:1:pos:R:3 pbc="T T T" Time=629
Ar 9.023095 9.719271 3.135140
Ar 7.088844 3.417126 3.795302
Ar 8.335789 0.301891 5.314170
Ar 9.716844 1.390390 4.625563
Ar 5.608971 2.502605 2.409974
Ar 7.157998 9.544012 6.568275
Ar 7.096771 6.986058 1.677994
Ar 7.293437 4.491989 3.777641
Ar 4.225869 2.550094 3.161783
Ar 1.787960 7.769848 3.427523
10
Lattice="10.0 0 0 0 10.0 0 0 0 10.0" Properties=species:S:1:pos:R:3 pbc="T T T" Time=630
Ar 5.270213 3.380188 6.112412
Ar 5.316148 0.315048 5.192378
Ar 4.061372 0.089224 6.540189
Ar 6.779160 8.706952 4.377755
Ar 4.588372 1.527343 4.259514
Ar 1.224745 1.587324 7.740876
Ar 0.841936 1.036748 2.156469
Ar 0.867976 7.365441 6.733767
Ar 7.823042 1.158639 9.305712
Ar 0.630000 3.557184 5.512462
10
Lattice="10.0 0 0 0 10.0 0 0 0 10.0" Properties=species:S:1:pos:R:3 pbc="T T T" Time=631
Ar 1.517332 7.041099 9.089675
Ar 3.543498 7.213181 6.589456
Ar 9.786950 9.876554 7.766205
Ar 3.841497 6.023533 4.129941
Ar 3.567842 0.552075 6.109006
Ar 5.291475 3.630625 8.913495
Ar 4.587100 5.087437 2.634943
Ar 4.442477 0.238688 9.689897
Ar 1.420138 9.767186 5.449682
Ar 9.472041 9.344520 7.597401
10
Lattice="10.0 0 0 0 10.0 0 0 0 10.0" Properties=species:S:1:pos:R:3 pbc="T T T" Time=632
Ar 7.764451 0.702013 2.066940
Ar 1.770888 4.111282 7.986544
Ar 5.512508 9.663879 8.992244
Ar 0.903839 3.340109 3.882124
Ar 2.547289 9.576845 7.958464
Ar 9.358204 5.673925 0.086115
Ar 8.332265 9.138127 3.113418
Ar 8.016977 3.111934 2.646028
Ar 5.017234 8.375734 1.593652
Ar 8.314082 5.131856 9.682339
10
Lattice="10.0 0 0 0 10.0 0 0 0 10.0" Properties=species:S:1:pos:R:3 pbc="T T T" Time=633
Ar 4.011570 4.362927 5.044205
Ar 9.998278 1.009383 9.383634
Ar 0.497985 8.200851 9.821572
Ar 7.966171 0.656697 3.634325
Ar 1.526740 8.601618 9.807924
Ar 3.424934 7.717226 1.258736
Ar 2.077439 3.188805 3.591873
Ar 1.591477 5.985181 5.602159
Ar 8.614326 6.984280 7.737618
Ar 7.896200 2.169545 2.163990
10
Lattice="10.0 0 0 0 10.0 0 0 0 10.0" Properties=species:S:1:pos:R:3 pbc="T T T" Time=634
Ar 0.258683 8.023853 8.021459
Ar 8.225669 7.907484 0.780723
Ar 5.483463 6.737825 0.650899
Ar 5.028505 7.973284 3.386526
Ar 0.506191 7.626390 1.657384
Ar 7.491865 9.760632 2.431434
Ar 5.822618 7.239467 4.070339
Ar 5.165977 8.858431 8.558291
Ar 2.211418 5.592825 3.881585
Ar 7.478117 9.207130 4.645564
10
Lattice="10.0 0 0 0 10.0 0 0 0 10.0" Properties=species:S:1:pos:R:3 pbc="T T T" Time=635
Ar 6.505798 1.684779 0.998714
Ar 6.453058 4.805588 2.177812
Ar 0.469058 5.274842 1.480225
Ar 2.090838 5.289863 3.138735
Ar 9.485524 6.651118 3.506843
Ar 1.558798 1.804036 3.604134
Ar 9.567797 1.290127 4.548804
Ar 8.740476 1.731681 1.514423
Ar 5.808508 4.201370 0.025552
Ar 7.060034 6.244723 7.127129
10
Lattice="10.0 0 0 0 10.0 0 0 0 10.0" Properties=species:S:1:pos:R:3 pbc="T T T" Time=636
Ar 2.752914 5.345705 3.975969
Ar 4.680446 1.703690 3.574898
Ar 5.454652 3.811858 2.309551
Ar 9.153026 2.606574 2.890822
Ar 8.464861 5.675845 5.356304
Ar 5.625732 3.847445 4.776829
Ar 3.313118 5.340652 5.027394
Ar 2.314975 4.604933 4.470554
Ar 9.405599 2.809914 6.169519
Ar 6.641952 3.282318 9.608702
10
Lattice="10.0 0 0 0 10.0 0 0 0 10.0" Properties=species:S:1:pos:R:3 pbc="T T T" Time=637
Ar 9.000023 9.006629 6.953222
Ar 2.907835 8.601795 4.971989
Ar 0.440242 2.348872 3.138869
Ar 6.215219 9.923286 2.642912
Ar 7.444196 4.700574 7.205767
Ar 9.692673 5.890855 5.949521
Ar 7.058432 9.391175 5.505987
Ar 5.889481 7.478185 7.426686
Ar 3.002687 1.418458 2.313479
Ar 6.223871 0.319912 2.090275
10
Lattice="10.0 0 0 0 10.0 0 0 0 10.0" Properties=species:S:1:pos:R:3 pbc="T T T" Time=638
Ar 5.245814 2.665494 9.931664
Ar 1.135222 5.499894 6.369081
Ar 5.425833 0.885890 3.968183
Ar 3.277413 7.239997 2.395002
Ar 6.423532 3.725305 9.055230
Ar 3.759616 7.934266 7.122218
Ar 0.803985 3.441802 5.984846
Ar 9.465064 0.353394 0.381364
Ar 6.599775 0.027002 8.457440
Ar 5.805791 7.357507 4.571847
10
Lattice="10.0 0 0 0 10.0 0 0 0 10.0" Properties=species:S:1:pos:R:3 pbc="T T T" Time=639
Ar 1.491609 6.324359 2.910109
Ar 9.362609 2.397993 7.766173
Ar 0.411423 9.422907 4.797496
Ar 0.348287 4.954654 1.592616
Ar 5.402866 2.750034 0.904694
Ar 7.826562 9.977678 8.294914
Ar 4.549535 7.492429 6.463703
Ar 3.040646 3.228603 3.336043
Ar 0.196864 8.635545 4.601401
Ar 5.379029 3.997155 7.607894
10
Lattice="10.0 0 0 0 10.0 0 0 0 10.0" Properties=species:S:1:pos:R:3 pbc="T T T" Time=640
Ar 7.737380 9.983203 5.888572
Ar 7.589998 9.296104 9.163267
Ar 5.397012 7.959925 5.626810
Ar 7.419161 2.669311 0.790229
Ar 4.382223 1.774784 2.754140
Ar 1.893507 2.021089 9.467611
Ar 8.295083 1.543045 6.942557
Ar 6.616228 6.103812 6.290722
Ar 3.793953 7.244088 0.745361
Ar 4.952269 0.636803 0.643941
10
Lattice="10.0 0 0 0 10.0 0 0 0 10.0" Properties=species:S:1:pos:R:3 pbc="T T T" Time=641
Ar 3.983156 3.642053 8.867039
Ar 5.817387 6.194216 0.560361
Ar 0.372728 6.460708 6.447099
Ar 4.490030 0.383962 9.987837
Ar 3.361581 0.799533 4.603587
Ar 5.960451 4.064499 0.640308
Ar 2.040631 5.593662 7.421412
Ar 0.191810 8.979020 9.245401
Ar 7.400916 5.888866 6.898346
Ar 4.525509 7.276452 3.679987
10
Lattice="10.0 0 0 0 10.0 0 0 0 10.0" Properties=species:S:1:pos:R:3 pbc="T T T" Time=642
Ar 0.228927 7.300887 1.845495
Ar 4.044777 3.092327 1.957455
Ar 5.348439 4.961495 7.267386
Ar 1.560900 8.098614 9.185445
Ar 2.340937 9.824285 6.453037
Ar 0.027395 6.107910 1.813005
Ar 5.786185 9.644295 7.900277
Ar 3.767396 1.854224 2.200082
Ar 1.007879 4.533645 3.051332
Ar 4.098749 3.916098 6.716031
10
Lattice="10.0 0 0 0 10.0 0 0 0 10.0" Properties=species:S:1:pos:R:3 pbc="T T T" Time=643
Ar 6.474696 0.959720 4.823949
Ar 2.272166 9.990449 3.354549
Ar 0.324141 3.462287 8.087668
Ar 8.631770 5.813266 8.383053
Ar 1.320294 8.849037 8.302488
Ar 4.094342 8.151309 2.985704
Ar 9.531749 3.694923 8.379147
Ar 7.342982 4.729427 5.154764
Ar 4.614841 3.178423 9.204317
Ar 3.671988 0.555744 9.752074
10
Lattice="10.0 0 0 0 10.0 0 0 0 10.0" Properties=species:S:1:pos:R:3 pbc="T T T" Time=644
Ar 2.720503 4.618780 7.802410
Ar 0.499605 6.888790 4.751601
Ar 5.299880 1.963110 8.907965
Ar 5.702640 3.527918 7.580660
Ar 0.299650 7.873789 0.151938
Ar 8.161246 0.194488 4.158392
Ar 3.277312 7.745552 8.858017
Ar 0.918519 7.604412 8.109488
Ar 8.221807 1.823194 5.357307
Ar 3.245192 7.195360 2.788102
10
Lattice="10.0 0 0 0 10.0 0 0 0 10.0" Properties=species:S:1:pos:R:3 pbc="T T T" Time=645
Ar 8.966310 8.277839 0.780871
Ar 8.727042 3.787133 6.148652
Ar 0.256751 0.469471 9.735202
Ar 2.773507 1.242577 6.778268
Ar 9.279006 6.898541 2.001388
Ar 2.228153 2.237665 5.331080
Ar 7.041747 1.790634 9.329947
Ar 4.494056 0.479397 1.064212
Ar 1.828773 0.467967 1.510298
Ar 2.818396 3.834975 5.824130
10
Lattice="10.0 0 0 0 10.0 0 0 0 10.0" Properties=species:S:1:pos:R:3 pbc="T T T" Time=646
Ar 5.212117 1.936898 3.759332
Ar 6.954478 0.685475 7.545704
Ar 5.213619 8.975822 0.562448
Ar 9.844377 8.957247 5.975868
Ar 8.258358 5.923295 3.850849
Ar 6.295059 4.280829 6.503758
Ar 0.806186 5.835717 9.801878
Ar 8.069592 3.354381 4.018924
Ar 5.435740 9.112754 7.663298
Ar 2.391600 0.474590 8.860158
10
Lattice="10.0 0 0 0 10.0 0 0 0 10.0" Properties=species:S:1:pos:R:3 pbc="T T T" Time=647
Ar 1.457917 5.595977 6.737774
Ar 5.181913 7.583818 8.942756
Ar 0.170485 7.482174 1.389690
Ar 6.915256 6.671897 5.173493
Ar 7.237715 4.948027 5.700328
Ar 0.361942 6.323973 7.676400
Ar 4.570625 9.880801 0.273808
Ar 1.645130 6.229365 6.973637
Ar 9.042708 7.757540 3.816302
Ar 1.964818 7.114244 1.896197
10
Lattice="10.0 0 0 0 10.0 0 0 0 10.0" Properties=species:S:1:pos:R:3 pbc="T T T" Time=648
Ar 7.703717 9.255055 9.716217
Ar 3.409356 4.482168 0.339807
Ar 5.127351 5.988526 2.216933
Ar 3.986136 4.386547 4.371118
Ar 6.217072 3.972762 7.549807
Ar 4.428824 8.367117 8.849042
Ar 8.335064 3.925885 0.745739
Ar 5.220668 9.104345 9.928349
Ar 2.649670 6.402320 9.969306
Ar 1.538036 3.753897 4.932236
10
Lattice="10.0 0 0 0 10.0 0 0 0 10.0" Properties=species:S:1:pos:R:3 pbc="T T T" Time=649
Ar 4.070920 3.324667 2.847504
Ar 1.636799 1.380516 1.736857
Ar 0.084194 4.494883 3.044167
Ar 1.057008 2.101227 3.568734
Ar 5.196434 2.997465 9.399295
Ar 8.495541 0.410303 0.021790
Ar 2.099503 7.970970 1.217670
Ar 8.674969 1.568750 2.730110
Ar 6.256633 5.047101 6.122310
Ar 1.111278 0.393546 7.968281
10
Lattice="10.0 0 0 0 10.0 0 0 0 10.0" Properties=species:S:1:pos:R:3 pbc="T T T" Time=650
Ar 0.438127 7.394280 5.978792
Ar 9.864246 8.278851 3.133909
Ar 5.041038 3.001241 3.871402
Ar 8.127883 9.815907 2.766351
Ar 4.175797 2.022169 1.248783
Ar 2.562205 2.453441 1.194465
Ar 5.863942 2.016056 1.689602
Ar 2.129321 4.033205 5.531944
Ar 9.863589 3.691893 2.275313
Ar 0.684517 7.033194 1.004328
10
Lattice="10.0 0 0 0 10.0 0 0 0 10.0" Properties=species:S:1:pos:R:3 pbc="T T T" Time=651
Ar 6.805335 1.463893 9.110080
Ar 8.091698 5.177181 4.530947
Ar 9.997882 1.507602 4.698636
Ar 5.198756 7.530591 1.963983
Ar 3.155160 1.046873 3.098271
Ar 6.628868 4.496577 2.367138
Ar 9.628381 6.061141 2.161533
Ar 5.583668 6.497660 8.333779
Ar 3.470545 2.336685 8.428315
Ar 0.257756 3.672842 4.040373
10
Lattice="10.0 0 0 0 10.0 0 0 0 10.0" Properties=species:S:1:pos:R:3 pbc="T T T" Time=652
Ar 3.172543 5.533505 2.241368
Ar 6.319153 2.075508 5.927987
Ar 4.954725 0.013965 5.525874
Ar 2.269626 5.245278 1.161614
Ar 2.134536 0.071561 4.947748
Ar 0.695474 6.539729 3.539808
Ar 3.392865 0.106225 2.633473
Ar 9.038016 8.962115 1.135614
Ar 7.077501 0.981477 4.581318
Ar 9.830997 0.312489 7.076417
10
Lattice="10.0 0 0 0 10.0 0 0 0 10.0" Properties=species:S:1:pos:R:3 pbc="T T T" Time=653
Ar 9.539751 9.603118 5.372657
Ar 4.546607 8.973837 7.325031
Ar 9.911567 8.520321 6.353115
Ar 9.340495 2.959966 0.359245
Ar 1.113913 9.096249 6.797226
Ar 4.762078 8.582880 4.712477
Ar 7.157350 4.151310 3.105412
Ar 2.492363 1.426569 3.937449
Ar 0.684456 9.626269 0.734321
Ar 9.404240 6.952141 0.112458
10
Lattice="10.0 0 0 0 10.0 0 0 0 10.0" Properties=species:S:1:pos:R:3 pbc="T T T" Time=654
Ar 5.907053 3.672759 8.504056
Ar 2.774053 5.872185 8.722094
Ar 4.868405 7.026672 7.180357
Ar 6.411272 0.674624 9.556766
Ar 0.093287 8.120937 8.646704
Ar 8.828680 0.626031 5.885148
Ar 0.921836 8.196395 3.577347
Ar 5.946710 3.891024 6.739284
Ar 4.291425 8.271047 6.887303
Ar 8.977483 3.591793 3.148500
10
Lattice="10.0 0 0 0 10.0 0 0 0 10.0" Properties=species:S:1:pos:R:3 pbc="T T T" Time=655
Ar 2.274319 7.742484 1.635375
Ar 1.001499 2.770533 0.119160
Ar 9.825130 5.532875 8.007621
Ar 3.482049 8.389282 8.754286
Ar 9.072809 7.145690 0.496241
Ar 2.895283 2.669181 7.057815
Ar 4.686322 2.241480 4.049283
Ar 9.401057 6.355479 9.541118
Ar 7.898394 6.915826 3.040286
Ar 8.550726 0.231444 6.184541
10
Lattice="10.0 0 0 0 10.0 0 0 0 10.0" Properties=species:S:1:pos:R:3 pbc="T T T" Time=656
Ar 8.641585 1.812204 4.766733
Ar 9.228943 9.668880 1.516226
Ar 4.781925 4.038932 8.834918
Ar 0.552827 6.103939 7.951807
Ar 8.052331 6.170443 2.345779
Ar 6.961886 4.712332 8.230483
Ar 8.450808 6.286565 4.521218
Ar 2.855406 8.819938 2.342913
Ar 1.505296 5.560752 9.193234
Ar 8.123969 6.871095 9.220583
10
Lattice="10.0 0 0 0 10.0 0 0 0 10.0" Properties=species:S:1:pos:R:3 pbc="T T T" Time=657
Ar 5.008851 5.881924 7.898092
Ar 7.456387 6.567226 2.913294
Ar 9.738729 2.544971 9.662182
Ar 7.623605 3.818597 7.149327
Ar 7.031793 5.195339 4.195487
Ar 1.028489 6.755482 9.403151
Ar 2.215294 0.331650 4.993153
Ar 6.309804 1.284273 5.144567
Ar 5.112196 4.205679 5.346184
Ar 7.697211 3.510746 2.256625
10
Lattice="10.0 0 0 0 10.0 0 0 0 10.0" Properties=species:S:1:pos:R:3 pbc="T T T" Time=658
Ar 1.376117 9.951644 1.029452
Ar 5.683832 3.465573 4.310361
Ar 4.695527 1.051009 0.489447
Ar 4.694348 1.533275 6.346798
Ar 6.011253 4.220235 6.045188
Ar 5.095096 8.798632 0.575816
Ar 5.979782 4.376736 5.465097
Ar 9.764203 3.748607 7.946222
Ar 8.719133 2.850584 1.499181
Ar 7.270454 0.150400 5.292667
10
Lattice="10.0 0 0 0 10.0 0 0 0 10.0" Properties=species:S:1:pos:R:3 pbc="T T T" Time=659
Ar 7.743383 4.021365 4.160812
Ar 3.911281 0.363938 5.707412
Ar 9.652326 9.557046 1.316712
Ar 1.765092 9.247952 5.544271
Ar 4.990712 3.245118 7.894904
Ar 9.161703 0.841782 1.748481
Ar 9.744270 8.421821 5.937041
Ar 3.218602 6.212940 0.747877
Ar 2.326066 1.495488 7.652179
Ar 6.843696 6.790052 8.328708
10
Lattice="10.0 0 0 0 10.0 0 0 0 10.0" Properties=species:S:1:pos:R:3 pbc="T T T" Time=660
Ar 4.110648 8.091086 7.292172
Ar 2.138704 7.262224 7.104353
Ar 4.609124 8.063090 2.143977
Ar 8.835834 6.962628 4.741745
Ar 3.789095 3.170488 6.406905
Ar 3.228311 2.884925 2.921146
Ar 3.689860 1.566501 9.746809
Ar 6.673001 8.677273 3.549531
Ar 5.932998 0.140392 3.805177
Ar 6.416940 3.429703 1.364748
10
Lattice="10.0 0 0 0 10.0 0 0 0 10.0" Properties=species:S:1:pos:R:3 pbc="T T T" Time=661
Ar 0.477913 2.160807 0.423533
Ar 0.366132 4.160511 8.501292
Ar 9.565971 6.569006 2.971199
Ar 5.906580 4.677305 3.939217
Ar 2.587478 3.095859 4.918907
Ar 7.294870 4.928196 4.093855
Ar 7.635442 4.711176 3.556579
Ar 0.127400 1.141607 6.351186
Ar 9.539929 8.785297 9.958177
Ar 5.990184 0.069354 4.400789
10
Lattice="10.0 0 0 0 10.0 0 0 0 10.0" Properties=species:S:1:pos:R:3 pbc="T T T" Time=662
Ar 6.845189 6.230532 3.554894
Ar 8.593550 1.058794 9.898230
Ar 4.522815 5.074920 3.798418
Ar 2.977326 2.391980 3.136689
Ar 1.385862 3.021230 3.430909
Ar 1.361429 6.971468 5.266564
Ar 1.581024 7.855852 7.366348
Ar 3.581829 3.605886 9.152832
Ar 3.146833 7.430258 6.111188
Ar 5.563428 6.709005 7.436829
10
Lattice="10.0 0 0 0 10.0 0 0 0 10.0" Properties=species:S:1:pos:R:3 pbc="T T T" Time=663
Ar 3.212464 0.300256 6.686257
Ar 6.820968 7.957078 1.295167
Ar 9.479662 3.580836 4.625637
Ar 0.047880 0.106628 2.334152
Ar 0.184246 2.946601 1.942911
Ar 5.834256 8.755980 5.798613
Ar 5.120529 1.259313 1.816786
Ar 7.036257 6.070165 1.954478
Ar 6.753736 6.075218 2.264198
Ar 5.136672 3.348656 0.472870
10
Lattice="10.0 0 0 0 10.0 0 0 0 10.0" Properties=species:S:1:pos:R:3 pbc="T T T" Time=664
Ar 9.579743 4.369981 9.817619
Ar 5.048386 4.855363 2.692104
Ar 4.436506 2.086751 5.452855
Ar 7.118476 7.821257 1.531608
Ar 8.982587 2.871989 0.454921
Ar 0.307067 0.540486 6.330648
Ar 8.660022 4.662780 6.267240
Ar 0.490686 8.534444 4.756124
Ar 0.360664 4.720180 8.417205
Ar 4.709918 9.988307 3.508911
10
Lattice="10.0 0 0 0 10.0 0 0 0 10.0" Properties=species:S:1:pos:R:3 pbc="T T T" Time=665
Ar 5.947020 8.439706 2.948982
Ar 3.275803 1.753674 4.089029
Ar 9.393350 0.592667 6.280076
Ar 4.189073 5.535886 0.729064
Ar 7.780928 2.797378 8.966929
Ar 4.779879 2.324992 6.862684
Ar 2.199515 8.066244 0.717695
Ar 3.030770 5.665666 3.590505
Ar 4.881939 8.698172 8.537489
Ar 4.283163 6.627961 6.544950
10
Lattice="10.0 0 0 0 10.0 0 0 0 10.0" Properties=species:S:1:pos:R:3 pbc="T T T" Time=666
Ar 2.314282 2.509458 6.080385
Ar 1.503219 8.651986 5.485955
Ar 4.350194 9.098583 7.107297
Ar 1.259669 3.250514 9.926520
Ar 6.579253 2.722725 7.478955
Ar 9.252691 4.109500 7.394722
Ar 5.739008 1.469708 5.168150
Ar 5.570854 2.796885 2.424884
Ar 9.403247 2.676179 8.657717
Ar 3.856408 3.267614 9.580988
10
Lattice="10.0 0 0 0 10.0 0 0 0 10.0" Properties=species:S:1:pos:R:3 pbc="T T T" Time=667
Ar 8.681545 6.579210 9.211788
Ar 9.730635 5.550297 6.882880
Ar 9.307038 7.604499 7.934518
Ar 8.330267 0.965142 9.123975
Ar 5.377578 2.648073 5.990982
Ar 3.725502 5.894009 7.926760
Ar 9.278499 4.873173 9.618604
Ar 8.110937 9.928104 1.259264
Ar 3.924556 6.654187 8.777945
Ar 3.429654 9.907266 2.617025
10
Lattice="10.0 0 0 0 10.0 0 0 0 10.0" Properties=species:S:1:pos:R:3 pbc="T T T" Time=668
Ar 5.048807 0.648962 2.343190
Ar 7.958051 2.448608 8.279804
Ar 4.263883 6.110415 8.761740
Ar 5.400866 8.679771 8.321434
Ar 4.175902 2.573421 4.503009
Ar 8.198313 7.678536 8.458781
Ar 2.817990 8.276637 4.069057
Ar 0.651021 7.059324 0.093643
Ar 8.445862 0.632175 8.898186
Ar 3.002902 6.546918 5.653062
10
Lattice="10.0 0 0 0 10.0 0 0 0 10.0" Properties=species:S:1:pos:R:3 pbc="T T T" Time=669
Ar 1.416043 4.718718 5.474619
Ar 6.185468 9.346914 9.676723
Ar 9.220742 4.616362 9.588932
Ar 2.471467 6.394403 7.518889
Ar 2.974226 2.498769 3.015036
Ar 2.671097 9.462966 8.990695
Ar 6.357491 1.680071 8.519518
Ar 3.191104 4.190541 8.928027
Ar 2.967194 4.610260 9.018535
Ar 2.576149 3.186571 8.689099
10
Lattice="10.0 0 0 0 10.0 0 0 0 10.0" Properties=species:S:1:pos:R:3 pbc="T T T" Time=670
Ar 7.783280 8.788472 8.606048
Ar 4.412881 6.245237 1.073636
Ar 4.177600 3.122308 0.416125
Ar 9.542066 4.109036 6.716344
Ar 1.772549 2.424118 1.527065
Ar 7.143883 1.247395 9.522607
Ar 9.896991 5.083510 2.969976
Ar 5.731188 1.321758 7.762412
Ar 7.488530 8.588329 9.138891
Ar 2.149397 9.826219 1.725140
10
Lattice="10.0 0 0 0 10.0 0 0 0 10.0" Properties=species:S:1:pos:R:3 pbc="T T T" Time=671
Ar 4.150516 2.858226 1.737475
Ar 2.640293 3.143558 2.470550
Ar 9.134458 1.628254 1.243318
Ar 6.612665 1.823676 5.913794
Ar 0.570873 2.349466 0.039093
Ar 1.616667 3.031824 0.054520
Ar 3.436491 8.486951 7.420432
Ar 0.880307 9.797681 7.668783
Ar 9.400976 1.221976 8.187334
Ar 1.722503 6.465577 4.761113
10
Lattice="10.0 0 0 0 10.0 0 0 0 10.0" Properties=species:S:1:pos:R:3 pbc="T T T" Time=672
Ar 9.826662 6.458708 6.118243
Ar 0.867706 0.041879 3.867464
Ar 4.091318 0.134200 2.070511
Ar 3.683264 9.538316 5.111245
Ar 9.369195 2.274817 8.551121
Ar 6.089457 4.816257 0.586439
Ar 6.975991 1.890393 1.870888
Ar 6.029421 8.273605 7.575147
Ar 2.004513 4.324890 5.986434
Ar 1.295609 3.104932 7.797085
10
Lattice="10.0 0 0 0 10.0 0 0 0 10.0" Properties=species:S:1:pos:R:3 pbc="T T T" Time=673
Ar 5.502856 0.059181 0.498989
Ar 9.095074 6.940210 5.264404
Ar 9.048164 8.640139 2.897715
Ar 0.753862 7.252956 4.308695
Ar 8.167331 2.200045 7.063139
Ar 0.562445 6.600822 1.118359
Ar 0.515493 5.293834 6.321345
Ar 1.178542 6.749521 7.481508
Ar 4.608040 7.427809 3.785534
Ar 0.868715 9.744288 0.833058
10
Lattice="10.0 0 0 0 10.0 0 0 0 10.0" Properties=species:S:1:pos:R:3 pbc="T T T" Time=674
Ar 1.179049 3.659655 4.879735
Ar 7.322440 3.838540 6.661343
Ar 4.005009 7.146078 3.724918
Ar 7.824461 4.967596 3.506147
Ar 6.965459 2.125269 5.575160
Ar 5.035434 8.385387 1.650278
Ar 4.054995 8.697275 0.771801
Ar 6.327663 5.225436 7.387869
Ar 7.211569 0.530732 1.584627
Ar 0.441826 6.383642 3.869034
10
Lattice="10.0 0 0 0 10.0 0 0 0 10.0" Properties=species:S:1:pos:R:3 pbc="T T T" Time=675
Ar 6.855242 7.260129 9.260481
Ar 5.549784 0.736870 8.058292
Ar 8.961852 5.652020 4.552120
Ar 4.895081 2.682240 2.703588
Ar 5.763587 2.050494 4.087181
Ar 9.508423 0.169950 2.182197
Ar 7.594494 2.100696 5.222250
Ar 1.476792 3.701367 7.294243
Ar 9.815099 3.633655 9.383721
Ar 0.014938 3.022999 6.905008
10
Lattice="10.0 0 0 0 10.0 0 0 0 10.0" Properties=species:S:1:pos:R:3 pbc="T T T" Time=676
Ar 2.531436 0.860601 3.641228
Ar 3.777147 7.635189 9.455238
Ar 3.918694 4.157960 5.379324
Ar 1.965700 0.396883 1.901028
Ar 4.561712 1.975705 2.599195
Ar 3.981554 1.954469 2.714240
Ar 1.133851 5.504163 9.672571
Ar 6.625904 2.177319 7.200629
Ar 2.418629 6.736579 7.182815
Ar 9.588050 9.662356 9.940983
10
Lattice="10.0 0 0 0 10.0 0 0 0 10.0" Properties=species:S:1:pos:R:3 pbc="T T T" Time=677
Ar 8.207630 4.461074 8.021974
Ar 2.004509 4.533509 0.852183
Ar 8.875536 2.663901 6.206528
Ar 9.036297 8.111542 1.098433
Ar 3.359850 1.900901 1.111237
Ar 8.454684 3.738989 3.246283
Ar 4.673216 8.907630 4.122897
Ar 1.775074 0.653298 7.107028
Ar 5.022158 9.839503 4.981913
Ar 9.161108 6.301687 2.976940
10
Lattice="10.0 0 0 0 10.0 0 0 0 10.0" Properties=species:S:1:pos:R:3 pbc="T T T" Time=678
Ar 3.883818 8.061543 2.402754
Ar 0.231873 1.431829 2.249130
Ar 3.832378 1.169842 7.033733
Ar 6.106883 5.826193 0.295813
Ar 7.945549 1.671908 0.458606
Ar 7.140270 5.677708 2.942992
Ar 8.212581 2.311096 8.573225
Ar 6.924243 9.129277 7.013427
Ar 7.625686 2.942428 2.781010
Ar 8.734165 2.941018 6.012896
10
Lattice="10.0 0 0 0 10.0 0 0 0 10.0" Properties=species:S:1:pos:R:3 pbc="T T T" Time=679
Ar 9.560005 1.662014 6.783535
Ar 8.459236 8.330149 3.646077
Ar 8.789221 9.675781 7.860936
Ar 3.177470 3.540846 9.493191
Ar 2.531249 1.442914 9.805974
Ar 5.825855 7.616425 2.639700
Ar 1.751889 5.714408 3.023410
Ar 2.073413 7.605255 6.919826
Ar 0.229271 6.045506 0.580248
Ar 8.307223 9.580349 9.048855
10
Lattice="10.0 0 0 0 10.0 0 0 0 10.0" Properties=species:S:1:pos:R:3 pbc="T T T" Time=680
Ar 5.236192 5.262484 1.164317
Ar 6.686601 5.228470 5.043024
Ar 3.746063 8.181720 8.688139
Ar 0.248056 1.255500 8.690567
Ar 7.116946 1.213913 9.153356
Ar 4.511440 9.555144 2.336410
Ar 5.291198 9.117726 7.473582
Ar 7.222583 6.081233 6.826225
Ar 2.832856 9.148584 8.379488
Ar 7.880282 6.219681 2.084811
10
Lattice="10.0 0 0 0 10.0 0 0 0 10.0" Properties=species:S:1:pos:R:3 pbc="T T T" Time=681
Ar 0.912380 8.862960 5.545096
Ar 4.913967 2.126790 6.439972
Ar 8.702989 6.687672 9.515132
Ar 7.318645 8.970161 7.887942
Ar 1.702641 0.984903 8.500739
Ar 3.197025 1.493863 2.033120
Ar 8.830508 2.521043 1.923754
Ar 2.371753 4.557211 6.732624
Ar 5.436440 2.251662 6.178728
Ar 7.453254 2.858996 5.120981
10
Lattice="10.0 0 0 0 10.0 0 0 0 10.0" Properties=species:S:1:pos:R:3 pbc="T T T" Time=682
Ar 6.588568 2.463436 9.925874
Ar 3.141330 9.025104 7.836907
Ar 3.660034 5.193487 0.342173
Ar 4.389234 6.684823 7.085316
Ar 6.288335 0.755895 7.848123
Ar 1.882609 3.432581 1.729830
Ar 2.369827 5.924365 6.373920
Ar 7.520927 3.033196 6.639036
Ar 8.039896 5.354872 3.977925
Ar 7.026227 9.498311 8.157151
10
Lattice="10.0 0 0 0 10.0 0 0 0 10.0" Properties=species:S:1:pos:R:3 pbc="T T T" Time=683
Ar 2.264755 6.063911 4.306653
Ar 4.696738 6.718823 7.569764
Ar 8.617079 3.699301 1.169214
Ar 1.459823 4.399486 6.282691
Ar 0.874029 0.526886 7.195507
Ar 0.568193 5.371300 1.426539
Ar 5.909147 9.327686 0.824085
Ar 2.670101 1.509180 6.545448
Ar 7.315301 7.662676 3.441204
Ar 6.599206 6.137628 1.193318
10
Lattice="10.0 0 0 0 10.0 0 0 0 10.0" Properties=species:S:1:pos:R:3 pbc="T T T" Time=684
Ar 7.940943 9.664387 8.687433
Ar 6.252144 4.412543 7.302622
Ar 3.574125 2.205116 1.996255
Ar 8.530419 2.114149 5.480067
Ar 5.459663 0.297976 6.542865
Ar 9.253776 7.310018 1.123250
Ar 9.448460 2.731005 5.274248
Ar 7.819276 9.985166 6.451860
Ar 6.590705 9.970481 2.904482
Ar 6.172245 2.776844 4.229509
10
Lattice="10.0 0 0 0 10.0 0 0 0 10.0" Properties=species:S:1:pos:R:3 pbc="T T T" Time=685
Ar 3.617132 3.264865 3.068212
Ar 7.807551 2.106263 7.035480
Ar 8.531169 0.710929 2.823296
Ar 5.601014 9.828812 4.677444
Ar 0.045288 0.069060 5.890227
Ar 7.939362 9.248738 0.819960
Ar 2.987772 6.134324 9.724410
Ar 2.968460 8.461156 6.358268
Ar 5.866111 2.278286 2.367762
Ar 5.745283 9.416058 7.265700
10
Lattice="10.0 0 0 0 10.0 0 0 0 10.0" Properties=species:S:1:pos:R:3 pbc="T T T" Time=686
Ar 9.293321 6.865342 7.449000
Ar 9.362958 9.799984 6.768338
Ar 3.488213 9.216741 3.650336
Ar 2.671602 7.543470 3.874824
Ar 4.630906 9.840145 5.237588
Ar 6.624947 1.187457 0.516671
Ar 6.527097 9.537652 4.174569
Ar 8.117648 6.937142 6.264670
Ar 5.141516 4.586090 1.831041
Ar 5.318319 6.055274 0.301889
10
Lattice="10.0 0 0 0 10.0 0 0 0 10.0" Properties=species:S:1:pos:R:3 pbc="T T T" Time=687
Ar 4.969508 0.465821 1.829788
Ar 0.918364 7.493706 6.501197
Ar 8.445258 7.722556 4.477378
Ar 9.742189 5.258128 3.072200
Ar 9.216525 9.611230 4.584950
Ar 5.310532 3.126174 0.213379
Ar 0.066422 2.940980 8.624729
Ar 3.266835 5.413128 6.171073
Ar 4.416924 6.893894 1.294319
Ar 4.891356 2.694490 3.338081
10
Lattice="10.0 0 0 0 10.0 0 0 0 10.0" Properties=species:S:1:pos:R:3 pbc="T T T" Time=688
Ar 0.645736 4.066295 6.210618
Ar 2.473771 5.187430 6.234055
Ar 3.402306 6.228390 5.304406
Ar 6.812763 2.972761 2.269580
Ar 3.802145 9.382321 3.932329
Ar 3.996118 5.064892 9.910087
Ar 3.605755 6.344306 3.074884
Ar 8.415980 3.889115 6.077432
Ar 3.692330 9.201689 0.757605
Ar 4.464393 9.333713 6.374265
10
Lattice="10.0 0 0 0 10.0 0 0 0 10.0" Properties=species:S:1:pos:R:3 pbc="T T T" Time=689
Ar 6.321965 7.666768 0.591448
Ar 4.029178 2.881153 5.966915
Ar 8.359347 4.734211 6.131432
Ar 3.883337 0.687394 1.466959
Ar 8.387770 9.153427 3.279708
Ar 2.681703 7.003609 9.606794
Ar 7.145089 9.747633 7.525039
Ar 3.565125 2.365102 5.983792
Ar 2.967737 1.509485 0.220892
Ar 4.037431 5.972939 9.410451
10
Lattice="10.0 0 0 0 10.0 0 0 0 10.0" Properties=species:S:1:pos:R:3 pbc="T T T" Time=690
Ar 1.998192 1.267235 4.972279
Ar 5.584563 0.574846 5.699807
Ar 3.316421 3.240067 6.958434
Ar 0.953912 8.402026 0.664339
Ar 2.973394 8.924535 2.627084
Ar 1.367288 8.942327 9.303500
Ar 0.684423 3.150959 1.975186
Ar 8.714263 0.841088 5.890152
Ar 2.243143 3.817281 9.684177
Ar 3.610469 2.612165 2.446640
10
Lattice="10.0 0 0 0 10.0 0 0 0 10.0" Properties=species:S:1:pos:R:3 pbc="T T T" Time=691
Ar 7.674420 4.867702 9.353110
Ar 6.791730 7.881304 5.445364
Ar 8.273494 1.745923 7.785436
Ar 8.024510 6.116638 9.861749
Ar 7.559018 8.695642 1.974461
Ar 0.052833 0.881075 9.000212
Ar 4.223758 6.554286 6.425333
Ar 4.211616 9.704309 5.783846
Ar 1.518526 6.125097 9.147431
Ar 3.183547 9.251359 5.482823
10
Lattice="10.0 0 0 0 10.0 0 0 0 10.0" Properties=species:S:1:pos:R:3 pbc="T T T" Time=692
Ar 3.350647 8.468168 3.733941
Ar 7.998898 5.187761 5.190921
Ar 3.230568 0.251780 8.612438
Ar 5.095077 3.831211 9.059255
Ar 2.144644 8.466749 1.321838
Ar 8.738407 2.819861 8.696829
Ar 7.763091 9.957612 0.875480
Ar 9.708970 8.567530 5.677541
Ar 0.793910 8.432915 8.610685
Ar 2.756627 5.890554 8.519006
10
Lattice="10.0 0 0 0 10.0 0 0 0 10.0" Properties=species:S:1:pos:R:3 pbc="T T T" Time=693
Ar 9.026831 2.068482 8.114709
Ar 9.206067 2.494219 4.936477
Ar 8.187637 8.757639 9.439436
Ar 2.165688 1.545938 8.256822
Ar 6.730269 8.237857 0.669216
Ar 7.423986 4.758644 8.393449
Ar 1.302423 3.360937 5.325628
Ar 5.206464 7.430815 5.571278
Ar 0.069293 0.740732 8.073939
Ar 2.329565 2.529688 1.555147
10
Lattice="10.0 0 0 0 10.0 0 0 0 10.0" Properties=species:S:1:pos:R:3 pbc="T T T" Time=694
Ar 4.703016 5.668795 2.495480
Ar 0.413235 9.800676 4.682033
Ar 3.144706 7.263499 0.266434
Ar 9.236299 9.260664 7.454390
Ar 1.315894 8.008964 0.016592
Ar 6.109566 6.697428 8.090069
Ar 4.841755 6.764261 9.775777
Ar 0.703959 6.294100 5.465013
Ar 9.344676 3.048549 7.537192
Ar 1.902502 9.168821 4.591289
10
Lattice="10.0 0 0 0 10.0 0 0 0 10.0" Properties=species:S:1:pos:R:3 pbc="T T T" Time=695
Ar 0.379167 9.269152 6.876253
Ar 1.620398 7.107130 4.427588
Ar 8.101790 5.769363 1.093420
Ar 6.306918 6.975392 6.651958
Ar 5.901504 7.780066 9.363982
Ar 4.795144 8.636212 7.786688
Ar 8.381093 0.167588 4.225926
Ar 6.201453 5.157385 5.358749
Ar 8.620086 5.356320 7.000443
Ar 1.475440 5.807954 7.627430
10
Lattice="10.0 0 0 0 10.0 0 0 0 10.0" Properties=species:S:1:pos:R:3 pbc="T T T" Time=696
Ar 6.055317 2.869508 1.257027
Ar 2.827494 4.413614 4.173145
Ar 3.058861 4.275229 1.920416
Ar 3.377536 4.690121 5.849527
Ar 0.487097 7.551175 8.711369
Ar 3.480731 0.574996 7.483298
Ar 1.920454 3.570908 8.676075
Ar 1.698947 4.020669 5.252485
Ar 7.895496 7.664091 6.463695
Ar 1.048445 2.447060 0.663567
10
Lattice="10.0 0 0 0 10.0 0 0 0 10.0" Properties=species:S:1:pos:R:3 pbc="T T T" Time=697
Ar 1.731468 6.469865 5.637802
Ar 4.034590 1.720097 3.918702
Ar 8.015931 2.781095 2.747413
Ar 0.448156 2.404855 5.047097
Ar 5.072696 7.322280 8.058767
Ar 2.166308 2.513787 7.179900
Ar 5.459815 6.974227 3.126224
Ar 7.196440 2.883946 5.146215
Ar 7.170908 9.971860 5.926947
Ar 0.621451 9.086165 3.699705
10
Lattice="10.0 0 0 0 10.0 0 0 0 10.0" Properties=species:S:1:pos:R:3 pbc="T T T" Time=698
Ar 7.407619 0.070221 0.018576
Ar 5.241726 9.026594 3.664179
Ar 2.973003 1.286962 3.574403
Ar 7.518810 0.119603 4.244712
Ar 9.658296 7.093385 7.406165
Ar 0.851886 4.452578 6.876502
Ar 8.999177 0.377549 7.576370
Ar 2.693857 1.747196 5.039987
Ar 6.446319 2.279630 5.390198
Ar 0.194455 5.725268 6.735846
10
Lattice="10.0 0 0 0 10.0 0 0 0 10.0" Properties=species:S:1:pos:R:3 pbc="T T T" Time=699
Ar 3.083770 3.670578 4.399351
Ar 6.448862 6.333090 3.409655
Ar 7.930076 9.792828 4.401389
Ar 4.589464 7.834352 3.442326
Ar 4.243895 6.864490 6.753563
Ar 9.537465 6.391369 6.573106
Ar 2.538539 3.780870 2.026516
Ar 8.191272 0.610447 4.933763
Ar 5.721730 4.587399 4.853450
Ar 9.767459 2.364371 9.771987
10
Lattice="10.0 0 0 0 10.0 0 0 0 10.0" Properties=species:S:1:pos:R:3 pbc="T T T" Time=700
Ar 8.759921 7.270934 8.780127
Ar 7.655996 3.639585 3.155131
Ar 2.887165 8.298668 5.228290
Ar 1.660122 5.549100 2.639939
Ar 8.829469 6.635658 6.100992
Ar 8.223111 8.330030 6.269724
Ar 6.077902 7.184192 6.476661
Ar 3.688672 9.473724 4.827625
Ar 4.997140 6.895169 4.316704
Ar 9.340421 9.003539 2.808082
10
Lattice="10.0 0 0 0 10.0 0 0 0 10.0" Properties=species:S:1:pos:R:3 pbc="T T T" Time=701
Ar 4.436071 0.871289 3.160907
Ar 8.863136 0.946079 2.900604
Ar 7.844765 6.806110 6.056233
Ar 8.730775 3.263852 1.837551
Ar 3.415043 6.406827 5.448423
Ar 6.908757 0.268692 5.966342
Ar 9.617264 0.587515 0.926801
Ar 9.185559 8.335401 4.720444
Ar 4.272551 9.202936 3.779960
Ar 8.913383 5.642707 5.844178
10
Lattice="10.0 0 0 0 10.0 0 0 0 10.0" Properties=species:S:1:pos:R:3 pbc="T T T" Time=702
Ar 0.112221 4.471644 7.541691
Ar 0.070276 8.252574 2.646076
Ar 2.802295 5.313453 6.884210
Ar 5.801429 0.978603 1.035164
Ar 8.000631 6.177961 4.795848
Ar 5.594395 2.207390 5.662962
Ar 3.156622 3.990835 5.376947
Ar 4.682514 7.197179 4.613228
Ar 3.547961 1.510700 3.243212
Ar 8.486344 2.281875 8.880273
10
Lattice="10.0 0 0 0 10.0 0 0 0 10.0" Properties=species:S:1:pos:R:3 pbc="T T T" Time=703
Ar 5.788375 8.072035 1.922462
Ar 1.277412 5.559068 2.391559
Ar 7.759769 3.820851 7.712202
Ar 2.872082 8.693359 0.232775
Ar 2.586219 5.949095 4.143273
Ar 4.280032 4.146089 5.359582
Ar 6.695985 7.394153 9.827081
Ar 0.179473 6.058960 4.506010
Ar 2.823368 3.818428 2.706476
Ar 8.059360 8.920983 1.916358
10
Lattice="10.0 0 0 0 10.0 0 0 0 10.0" Properties=species:S:1:pos:R:3 pbc="T T T" Time=704
Ar 1.464528 1.672426 6.303232
Ar 2.484549 2.865563 2.137042
Ar 2.717241 2.328261 8.540205
Ar 9.942735 6.408114 9.430386
Ar 7.171806 5.720229 3.490698
Ar 2.965670 6.084787 5.056203
Ar 0.235349 0.797461 4.277204
Ar 5.676431 4.920742 4.398792
Ar 2.098774 6.126156 2.169740
Ar 7.632376 5.560090 4.952443
10
Lattice="10.0 0 0 0 10.0 0 0 0 10.0" Properties=species:S:1:pos:R:3 pbc="T T T" Time=705
Ar 7.140675 5.272818 0.684008
Ar 3.691678 0.172059 1.882514
Ar 7.674713 0.835670 9.368208
Ar 7.013387 4.122870 8.627997
Ar 1.757402 5.491367 2.838131
Ar 1.651310 8.023484 4.752826
Ar 3.774716 4.200767 8.727321
Ar 1.173383 3.782525 4.291579
Ar 1.374184 8.433877 1.633002
Ar 7.205396 2.199200 7.988529
10
Lattice="10.0 0 0 0 10.0 0 0 0 10.0" Properties=species:S:1:pos:R:3 pbc="T T T" Time=706
Ar 2.816822 8.873209 5.064784
Ar 4.898807 7.478554 1.627985
Ar 2.632186 9.343079 0.196213
Ar 4.084040 1.837626 7.825607
Ar 6.342987 5.262526 2.185458
Ar 0.336950 9.962182 4.449450
Ar 7.314080 7.604072 3.177435
Ar 6.670307 2.644294 4.184373
Ar 0.649594 0.741598 1.096263
Ar 6.778457 8.838304 1.024712
10
Lattice="10.0 0 0 0 10.0 0 0 0 10.0" Properties=species:S:1:pos:R:3 pbc="T T T" Time=707
Ar 8.492970 2.473604 9.445565
Ar 6.105938 4.785051 1.373457
Ar 7.589664 7.850476 1.024231
Ar 1.154691 9.552394 7.023217
Ar 0.928574 5.033689 1.532782
Ar 9.022589 1.900880 4.146075
Ar 0.853444 1.007376 7.627550
Ar 2.167228 1.506058 4.077172
Ar 9.925003 3.049319 0.559524
Ar 6.351515 5.477404 4.060877
10
Lattice="10.0 0 0 0 10.0 0 0 0 10.0" Properties=species:S:1:pos:R:3 pbc="T T T" Time=708
Ar 4.169119 6.073998 3.826347
Ar 7.313062 2.091546 1.118928
Ar 2.547144 6.357871 1.852247
Ar 8.225342 7.267163 6.220827
Ar 5.514161 4.804848 0.880104
Ar 7.708227 3.839578 3.842700
Ar 4.392810 4.410681 2.077669
Ar 7.664150 0.367822 3.969971
Ar 9.200409 5.357042 0.022784
Ar 5.924576 2.116509 7.097038
10
Lattice="10.0 0 0 0 10.0 0 0 0 10.0" Properties=species:S:1:pos:R:3 pbc="T T T" Time=709
Ar 9.845249 9.674385 8.207115
Ar 8.520186 9.398040 0.864398
Ar 7.504623 4.865266 2.680264
Ar 5.296008 4.981861 5.418408
Ar 0.099750 4.576011 0.227429
Ar 6.393864 5.778277 3.539326
Ar 7.932162 7.814055 6.527816
Ar 3.161073 9.229586 3.862769
Ar 8.475832 7.664769 9.486058
Ar 5.497638 8.755615 0.133201
10
Lattice="10.0 0 0 0 10.0 0 0 0 10.0" Properties=species:S:1:pos:R:3 pbc="T T T" Time=710
Ar 5.521380 3.274774 2.587888
Ar 9.727310 6.704534 0.609868
Ar 2.462099 3.372664 3.508278
Ar 2.366674 2.696559 4.615989
Ar 4.685376 4.347187 9.574713
Ar 5.079502 7.716976 3.235952
Ar 1.471478 1.217412 0.978001
Ar 8.657996 8.091349 3.755568
Ar 7.751256 9.972496 8.949332
Ar 5.070699 5.394721 3.169364
10
Lattice="10.0 0 0 0 10.0 0 0 0 10.0" Properties=species:S:1:pos:R:3 pbc="T T T" Time=711
Ar 1.197513 6.875166 6.968660
Ar 0.934435 4.011034 0.355344
Ar 7.419614 1.880030 4.336262
Ar 9.437336 0.411255 3.813576
Ar 9.271003 4.118364 8.921997
Ar 3.765103 9.655710 2.932603
Ar 5.010794 4.620768 5.428184
Ar 4.154919 6.953112 3.648367
Ar 7.026679 2.280214 8.412602
Ar 4.643759 2.033827 6.205527
10
Lattice="10.0 0 0 0 10.0 0 0 0 10.0" Properties=species:S:1:pos:R:3 pbc="T T T" Time=712
Ar 6.873649 0.475550 1.349430
Ar 2.141559 1.317535 0.100820
Ar 2.377145 0.387511 5.164056
Ar 6.507982 8.125834 3.011353
Ar 3.856630 3.889540 8.269280
Ar 2.450704 1.594450 2.629254
Ar 8.550110 8.024124 9.878366
Ar 9.651842 5.814876 3.541166
Ar 6.302102 4.587933 7.875871
Ar 4.216818 8.672934 9.241691
10
Lattice="10.0 0 0 0 10.0 0 0 0 10.0" Properties=species:S:1:pos:R:3 pbc="T T T" Time=713
Ar 2.549785 4.075933 5.730200
Ar 3.348691 8.624034 9.846302
Ar 7.334673 8.894994 5.991850
Ar 3.578631 5.840412 2.209130
Ar 8.442250 3.660717 7.616558
Ar 1.136305 3.533192 2.325904
Ar 2.089426 1.427482 4.328549
Ar 5.148765 4.676639 3.433965
Ar 5.577525 6.895650 7.339141
Ar 3.789876 5.312040 2.277857
10
Lattice="10.0 0 0 0 10.0 0 0 0 10.0" Properties=species:S:1:pos:R:3 pbc="T T T" Time=714
Ar 8.225921 7.676319 0.110970
Ar 4.555822 5.930534 9.591781
Ar 2.292201 7.402477 6.819646
Ar 0.649279 3.554988 1.406907
Ar 3.027868 3.431894 6.963835
Ar 9.821907 5.471934 2.022557
Ar 5.628742 4.830839 8.778731
Ar 0.645688 3.538401 3.326764
Ar 4.852950 9.203369 6.802410
Ar 3.362934 1.951145 5.314022
10
Lattice="10.0 0 0 0 10.0 0 0 0 10.0" Properties=species:S:1:pos:R:3 pbc="T T T" Time=715
Ar 3.902056 1.276705 4.491740
Ar 5.762953 3.237034 9.337260
Ar 7.249730 5.909960 7.647441
Ar 0.131384 5.237965 1.389233
Ar 7.613485 3.203071 6.311113
Ar 8.507507 7.410677 1.719208
Ar 9.168059 8.234195 3.228913
Ar 6.142635 2.400152 3.219583
Ar 4.128375 1.511087 6.265680
Ar 0.524512 4.621863 7.565619
10
Lattice="10.0 0 0 0 10.0 0 0 0 10.0" Properties=species:S:1:pos:R:3 pbc="T T T" Time=716
Ar 9.578192 4.877091 8.872511
Ar 6.970056 0.543564 9.082761
Ar 2.207258 4.417443 8.475237
Ar 9.613493 6.920933 1.371531
Ar 2.199101 2.974253 5.658396
Ar 7.193101 9.349431 1.415861
Ar 2.707405 1.637521 7.679074
Ar 1.639583 1.261899 3.112427
Ar 3.403801 3.818805 5.728950
Ar 7.686092 7.292576 9.817210
10
Lattice="10.0 0 0 0 10.0 0 0 0 10.0" Properties=species:S:1:pos:R:3 pbc="T T T" Time=717
Ar 5.254322 8.477473 3.253246
Ar 8.177158 7.850093 8.828262
Ar 7.164786 2.924928 9.303032
Ar 9.095603 8.603899 1.353830
Ar 6.784718 2.745434 5.005679
Ar 5.878684 1.288173 1.112488
Ar 6.246761 5.040861 2.129261
Ar 7.136532 0.123646 3.005271
Ar 2.679231 6.126527 5.192256
Ar 4.847672 9.963289 2.068802
10
Lattice="10.0 0 0 0 10.0 0 0 0 10.0" Properties=species:S:1:pos:R:3 pbc="T T T" Time=718
Ar 0.930450 2.077853 7.633981
Ar 9.384259 5.156624 8.573761
Ar 2.122315 1.432413 0.130829
Ar 8.577716 0.286864 1.336132
Ar 1.370228 2.516544 4.352953
Ar 4.564266 3.226916 0.809119
Ar 9.786119 8.444198 6.579452
Ar 2.633482 8.985393 2.898113
Ar 1.954767 8.434324 4.655566
Ar 2.009250 2.634000 4.320389
10
Lattice="10.0 0 0 0 10.0 0 0 0 10.0" Properties=species:S:1:pos:R:3 pbc="T T T" Time=719
Ar 6.606579 5.678215 2.014730
Ar 0.591361 2.463154 8.319258
Ar 7.079845 9.939900 0.958624
Ar 8.059831 1.969830 1.318434
Ar 5.955739 2.287654 3.700227
Ar 3.249857 5.165676 0.505737
Ar 3.325477 1.847534 1.029642
Ar 8.130439 7.847142 2.790960
Ar 1.230303 0.742121 4.118877
Ar 9.170806 5.304712 6.571973
10
Lattice="10.0 0 0 0 10.0 0 0 0 10.0" Properties=species:S:1:pos:R:3 pbc="T T T" Time=720
Ar 2.282708 9.278576 6.395479
Ar 1.798462 9.769684 8.064755
Ar 2.037376 8.447386 1.786421
Ar 7.541946 3.652795 1.300736
Ar 1.754986 2.281857 2.985650
Ar 1.935449 7.104436 0.202355
Ar 6.864833 5.250871 5.479834
Ar 3.627403 6.708895 2.683788
Ar 0.505832 3.049912 3.582205
Ar 5.118627 7.752332 8.885407
10
Lattice="10.0 0 0 0 10.0 0 0 0 10.0" Properties=species:S:1:pos:R:3 pbc="T T T" Time=721
Ar 7.958836 2.878936 0.776227
Ar 3.005563 7.076215 7.810252
Ar 6.994903 6.954867 2.614215
Ar 7.024064 5.335767 1.283040
Ar 7.554233 2.276061 2.271074
Ar 0.621041 9.043196 9.898973
Ar 0.404190 8.654207 9.930025
Ar 9.124368 5.570650 2.576618
Ar 9.781362 5.357702 3.045533
Ar 1.066447 0.199951 1.198840
10
Lattice="10.0 0 0 0 10.0 0 0 0 10.0" Properties=species:S:1:pos:R:3 pbc="T T T" Time=722
Ar 3.634973 6.479287 5.156941
Ar 4.212654 4.382755 7.555783
Ar 1.952429 5.462358 3.442019
Ar 6.506183 7.018738 1.265343
Ar 3.353546 2.270224 1.556467
Ar 9.306631 0.981947 9.595580
Ar 3.943546 2.057543 4.380216
Ar 4.621337 4.432401 2.469449
Ar 9.056825 7.665533 2.508893
Ar 7.014268 2.647571 3.512274
10
Lattice="10.0 0 0 0 10.0 0 0 0 10.0" Properties=species:S:1:pos:R:3 pbc="T T T" Time=723
Ar 9.311126 0.079657 9.537599
Ar 5.419746 1.689296 7.301312
Ar 6.909950 3.969862 4.269831
Ar 5.988296 8.701702 1.247635
Ar 9.152844 2.264364 0.841916
Ar 4.986190 4.023885 1.178229
Ar 0.488921 4.357659 6.944331
Ar 0.151139 3.283512 2.385713
Ar 8.299463 9.984005 1.948824
Ar 2.962102 5.095224 5.825742
10
Lattice="10.0 0 0 0 10.0 0 0 0 10.0" Properties=species:S:1:pos:R:3 pbc="T T T" Time=724
Ar 4.987281 3.680030 3.918259
Ar 6.626838 8.995836 7.046843
Ar 1.867469 2.477365 5.097641
Ar 5.470409 0.384666 1.229927
Ar 4.952140 2.258502 0.127362
Ar 0.665750 7.065823 2.760878
Ar 7.034294 6.657774 9.508447
Ar 5.680944 2.134624 2.301977
Ar 7.542101 2.302476 1.388755
Ar 8.909938 7.542877 8.139211
10
Lattice="10.0 0 0 0 10.0 0 0 0 10.0" Properties=species:S:1:pos:R:3 pbc="T T T" Time=725
Ar 0.663437 7.280399 8.298914
Ar 7.833929 6.302376 6.792373
Ar 6.824988 0.984869 5.925452
Ar 4.952519 2.067629 1.212218
Ar 0.751431 2.252638 9.412800
Ar 6.345308 0.107761 4.343527
Ar 3.579667 8.957889 2.072564
Ar 1.210754 0.985743 2.218250
Ar 6.784739 4.620947 0.828691
Ar 4.857775 9.990530 0.452679
10
Lattice="10.0 0 0 0 10.0 0 0 0 10.0" Properties=species:S:1:pos:R:3 pbc="T T T" Time=726
Ar 6.339592 0.880773 2.679574
Ar 9.041020 3.608916 6.537902
Ar 1.782507 9.492372 6.753263
Ar 4.434629 3.750571 1.194505
Ar 6.550716 2.246782 8.698226
Ar 2.024867 3.149699 5.926176
Ar 0.125036 1.258001 4.636684
Ar 6.740558 9.836869 2.134539
Ar 6.027392 6.939419 0.268621
Ar 0.805616 2.438184 2.766145
10
Lattice="10.0 0 0 0 10.0 0 0 0 10.0" Properties=species:S:1:pos:R:3 pbc="T T T" Time=727
Ar 2.015747 4.481147 7.060234
Ar 0.248110 0.915457 6.283432
Ar 6.740033 7.999889 7.581098
Ar 3.916739 5.433522 1.176796
Ar 2.350001 2.240926 7.983651
Ar 7.704419 6.191623 7.508802
Ar 6.670402 3.558110 7.200808
Ar 2.270361 8.687996 2.050829
Ar 5.270045 9.257892 9.708551
Ar 6.753461 4.885833 5.079603
10
Lattice="10.0 0 0 0 10.0 0 0 0 10.0" Properties=species:S:1:pos:R:3 pbc="T T T" Time=728
Ar 7.691825 8.081721 1.440999
Ar 1.455200 8.221999 6.028961
Ar 1.697559 6.507405 8.408934
Ar 3.398849 7.116472 1.159087
Ar 8.149287 2.235070 7.269076
Ar 3.383973 9.233549 9.091428
Ar 3.215766 5.858215 9.764936
Ar 7.800241 7.538921 1.967015
Ar 4.512699 1.576365 9.148480
Ar 2.701307 7.333484 7.393055
10
Lattice="10.0 0 0 0 10.0 0 0 0 10.0" Properties=species:S:1:pos:R:3 pbc="T T T" Time=729
Ar 3.367902 1.682300 5.821763
Ar 2.662288 5.528539 5.774490
Ar 6.655079 5.014934 9.236769
Ar 2.880958 8.799423 1.141378
Ar 3.948573 2.229210 6.554503
Ar 9.063535 2.275463 0.674054
Ar 9.761128 8.158316 2.329068
Ar 3.330121 6.389846 1.883200
Ar 3.755352 3.894839 8.588411
Ar 8.649153 9.781138 9.706503
10
Lattice="10.0 0 0 0 10.0 0 0 0 10.0" Properties=species:S:1:pos:R:3 pbc="T T T" Time=730
Ar 9.064439 5.180441 0.301796
Ar 3.869367 2.835088 5.520008
Ar 1.612550 3.522433 0.064637
Ar 2.363071 0.482390 1.123690
Ar 9.747859 2.223350 5.839931
Ar 4.743096 5.317378 2.256682
Ar 6.306497 0.458395 4.893188
Ar 8.839540 5.343209 1.700115
Ar 2.998006 6.213315 8.028342
Ar 4.597047 2.228816 2.019918
10
Lattice="10.0 0 0 0 10.0 0 0 0 10.0" Properties=species:S:1:pos:R:3 pbc="T T T" Time=731
Ar 4.761152 8.678747 4.782051
Ar 5.076446 0.141636 5.265525
Ar 6.570022 2.029932 0.892505
Ar 1.845183 2.165361 1.106001
Ar 5.546971 2.217323 5.125134
Ar 0.422658 8.359295 3.839310
Ar 2.851865 2.758473 7.457309
Ar 4.348961 4.296570 1.517032
Ar 2.240660 8.531793 7.468275
Ar 0.544941 4.676492 4.333332
10
Lattice="10.0 0 0 0 10.0 0 0 0 10.0" Properties=species:S:1:pos:R:3 pbc="T T T" Time=732
Ar 0.457889 2.177037 9.262156
Ar 6.283525 7.448185 5.011043
Ar 1.527495 0.537431 1.720373
Ar 1.327295 3.848331 1.088312
Ar 1.346082 2.211296 4.410338
Ar 6.102221 1.401214 5.421939
Ar 9.397234 5.058551 0.021430
Ar 9.858357 3.249947 1.334098
Ar 1.483313 0.850271 6.908208
Ar 6.492835 7.124168 6.646745
10
Lattice="10.0 0 0 0 10.0 0 0 0 10.0" Properties=species:S:1:pos:R:3 pbc="T T T" Time=733
Ar 6.154608 5.675244 3.742234
Ar 7.490618 4.754804 4.756588
Ar 6.484968 9.044930 2.548241
Ar 0.809406 5.531300 1.070623
Ar 7.145196 2.205281 3.695541
Ar 1.781782 4.443132 7.004568
Ar 5.942602 7.358629 2.585551
Ar 5.367753 2.203326 1.151164
Ar 0.725967 3.168749 6.348142
Ar 2.440729 9.571843 8.960159
10
Lattice="10.0 0 0 0 10.0 0 0 0 10.0" Properties=species:S:1:pos:R:3 pbc="T T T" Time=734
Ar 1.851327 9.173448 8.222306
Ar 8.697705 2.061434 4.502077
Ar 1.442442 7.552426 3.376109
Ar 0.291592 7.214299 1.052925
Ar 2.944310 2.199266 2.980744
Ar 7.461344 7.485051 8.587196
Ar 2.487965 9.658715 5.149667
Ar 0.877078 1.156673 0.968251
Ar 9.968620 5.487226 5.788075
Ar 8.388631 2.019508 1.273628
10
Lattice="10.0 0 0 0 10.0 0 0 0 10.0" Properties=species:S:1:pos:R:3 pbc="T T T" Time=735
Ar 7.548030 2.671651 2.702374
Ar 9.904809 9.368054 4.247580
Ar 6.399929 6.059961 4.203976
Ar 9.773777 8.897297 1.035227
Ar 8.743424 2.193250 2.265947
Ar 3.140930 0.526998 0.169839
Ar 9.033315 1.958775 7.713774
Ar 6.386403 0.110020 0.785336
Ar 9.211251 7.805674 5.227994
Ar 4.336532 4.467173 3.587098
10
Lattice="10.0 0 0 0 10.0 0 0 0 10.0" Properties=species:S:1:pos:R:3 pbc="T T T" Time=736
Ar 3.244733 6.169854 7.182442
Ar 1.111913 6.674674 3.993084
Ar 1.357417 4.567496 5.031844
Ar 9.255962 0.580295 1.017527
Ar 4.542540 2.187235 1.551150
Ar 8.820515 3.568944 1.752482
Ar 5.578665 4.258835 0.277883
Ar 1.895729 9.063367 0.602421
Ar 8.453882 0.124121 4.667914
Ar 0.284431 6.914838 5.900567
10
Lattice="10.0 0 0 0 10.0 0 0 0 10.0" Properties=species:S:1:pos:R:3 pbc="T T T" Time=737
Ar 8.941269 9.668124 1.662571
Ar 2.319024 3.981309 3.738578
Ar 6.314906 3.075032 5.859713
Ar 8.738146 2.263292 0.999827
Ar 0.341823 2.181153 0.836292
Ar 4.500100 6.610892 3.335125
Ar 2.124015 6.558896 2.841991
Ar 7.405055 8.016713 0.419505
Ar 7.696505 2.442554 4.107843
Ar 6.232328 9.362502 8.214036
10
Lattice="10.0 0 0 0 10.0 0 0 0 10.0" Properties=species:S:1:pos:R:3 pbc="T T T" Time=738
Ar 4.637806 3.166395 6.142702
Ar 3.526139 1.287948 3.484057
Ar 1.272396 1.582561 6.687584
Ar 8.220330 3.946289 0.982126
Ar 6.141105 2.175069 0.121435
Ar 0.179685 9.652839 4.917768
Ar 8.669366 8.858958 5.406097
Ar 2.914382 6.970058 0.236590
Ar 6.939129 4.760986 3.547773
Ar 2.180218 1.810170 0.527518
10
Lattice="10.0 0 0 0 10.0 0 0 0 10.0" Properties=species:S:1:pos:R:3 pbc="T T T" Time=739
Ar 0.334344 6.664664 0.622834
Ar 4.733255 8.594585 3.229538
Ar 6.229882 0.090092 7.515459
Ar 7.702440 5.629292 0.964431
Ar 1.940462 2.168982 9.406570
Ar 5.859275 2.694788 6.500412
Ar 5.214712 1.159023 7.970202
Ar 8.423707 5.923401 0.053673
Ar 6.181756 7.079416 2.987699
Ar 8.128108 4.257838 2.840998
10
Lattice="10.0 0 0 0 10.0 0 0 0 10.0" Properties=species:S:1:pos:R:3 pbc="T T T" Time=740
Ar 6.030882 0.162934 5.102967
Ar 5.940371 5.901221 2.975018
Ar 1.187369 8.597624 8.343336
Ar 7.184552 7.312296 0.946736
Ar 7.739818 2.162895 8.691705
Ar 1.538898 5.736753 8.083043
Ar 1.760023 3.459069 0.534318
Ar 3.933033 4.876743 9.870757
Ar 5.424383 9.397847 2.427625
Ar 4.075997 6.705506 5.154478
10
Lattice="10.0 0 0 0 10.0 0 0 0 10.0" Properties=species:S:1:pos:R:3 pbc="T T T" Time=741
Ar 1.727433 3.661208 9.583103
Ar 7.147478 3.207867 2.720500
Ar 6.144920 7.105086 9.171184
Ar 6.666529 8.995248 0.929203
Ar 3.539174 2.156807 7.976840
Ar 7.218524 8.778726 9.665669
Ar 8.305268 5.759177 3.098469
Ar 9.442480 3.830136 9.687670
Ar 4.667017 1.716270 1.867551
Ar 0.023887 9.153170 7.467963
10
Lattice="10.0 0 0 0 10.0 0 0 0 10.0" Properties=species:S:1:pos:R:3 pbc="T T T" Time=742
Ar 7.423984 7.159483 4.063240
Ar 8.354585 0.514511 2.465983
Ar 1.102472 5.612550 9.999033
Ar 6.148508 0.678200 0.911668
Ar 9.338530 2.150719 7.261975
Ar 2.898150 1.820698 1.248293
Ar 4.850510 8.059284 5.662621
Ar 4.951930 2.783529 9.504583
Ar 3.909651 4.034694 1.307476
Ar 5.971777 1.600835 9.781449
10
Lattice="10.0 0 0 0 10.0 0 0 0 10.0" Properties=species:S:1:pos:R:3 pbc="T T T" Time=743
Ar 3.120541 0.657759 8.543378
Ar 9.561692 7.821154 2.211466
Ar 6.060014 4.119999 0.826876
Ar 5.630421 2.361181 0.894288
Ar 5.137887 2.144630 6.547108
Ar 8.577850 4.862656 2.830768
Ar 1.395754 0.359392 8.226773
Ar 0.461373 1.736923 9.321496
Ar 3.152283 6.353117 0.747401
Ar 1.919667 4.048499 2.094934
10
Lattice="10.0 0 0 0 10.0 0 0 0 10.0" Properties=species:S:1:pos:R:3 pbc="T T T" Time=744
Ar 8.817099 4.156034 3.023515
Ar 0.768801 5.127797 1.956950
Ar 1.017557 2.627448 1.654718
Ar 5.112348 4.044078 0.877007
Ar 0.937244 2.138542 5.832242
Ar 4.257547 7.904610 4.413244
Ar 7.940996 2.659500 0.790926
Ar 5.970765 0.690378 9.138389
Ar 2.394916 8.671547 0.187330
Ar 7.867595 6.496182 4.408334
10
Lattice="10.0 0 0 0 10.0 0 0 0 10.0" Properties=species:S:1:pos:R:3 pbc="T T T" Time=745
Ar 4.513695 7.654315 7.503659
Ar 1.975911 2.434441 1.702435
Ar 5.975107 1.134932 2.482559
Ar 4.594268 5.726941 0.859728
Ar 6.736601 2.132454 5.117375
Ar 9.937243 0.946563 5.995720
Ar 4.486209 4.959589 3.355061
Ar 1.480146 9.643847 8.955292
Ar 1.637549 0.989979 9.627258
Ar 3.815523 8.943865 6.721735
10
Lattice="10.0 0 0 0 10.0 0 0 0 10.0" Properties=species:S:1:pos:R:3 pbc="T T T" Time=746
Ar 0.210289 1.152594 1.983807
Ar 3.183024 9.741090 1.447917
Ar 0.932659 9.642411 3.310400
Ar 4.076186 7.409805 0.842449
Ar 2.535959 2.126365 4.402508
Ar 5.616939 3.988516 7.578197
Ar 1.031421 7.259677 5.919196
Ar 6.989528 8.597315 8.772195
Ar 0.880181 3.308410 9.067186
Ar 9.763450 1.391549 9.035136
10
Lattice="10.0 0 0 0 10.0 0 0 0 10.0" Properties=species:S:1:pos:R:3 pbc="T T T" Time=747
Ar 5.906908 4.650825 6.463984
Ar 4.390137 7.047741 1.193403
Ar 5.890212 8.149890 4.138239
Ar 3.558105 9.092669 0.825167
Ar 8.335316 2.120278 3.687643
Ar 1.296636 7.030470 9.160673
Ar 7.576634 9.559764 8.483332
Ar 2.498898 7.550685 8.589050
Ar 0.122825 5.626937 8.507161
Ar 5.711352 3.839281 1.348507
10
Lattice="10.0 0 0 0 10.0 0 0 0 10.0" Properties=species:S:1:pos:R:3 pbc="T T T" Time=748
Ar 1.603523 8.149064 0.944154
Ar 5.597250 4.354395 0.938888
Ar 0.847766 6.657360 4.966085
Ar 3.040025 0.775530 0.807885
Ar 4.134674 2.114191 2.972778
Ar 6.976332 0.072423 0.743149
Ar 4.121846 1.859851 1.047469
Ar 8.008268 6.504055 8.405904
Ar 9.365473 7.945473 7.947136
Ar 1.659249 6.287005 3.661878
10
Lattice="10.0 0 0 0 10.0 0 0 0 10.0" Properties=species:S:1:pos:R:3 pbc="T T T" Time=749
Ar 7.300138 1.647303 5.424325
Ar 6.804367 1.661041 0.684375
Ar 5.805321 5.164831 5.793932
Ar 2.521942 2.458400 0.790603
Ar 9.934033 2.108104 2.257913
Ar 2.655915 3.114337 2.325693
Ar 0.667058 4.159938 3.611606
Ar 3.517764 5.457479 8.222697
Ar 8.608108 0.263992 7.387103
Ar 7.607147 8.734729 5.975248
10
Lattice="10.0 0 0 0 10.0 0 0 0 10.0" Properties=species:S:1:pos:R:3 pbc="T T T" Time=750
Ar 2.996752 5.145541 9.904495
Ar 8.011485 8.967688 0.429861
Ar 0.762832 3.672321 6.621849
Ar 2.003792 4.141203 0.773304
Ar 5.733392 2.102020 1.543072
Ar 8.335498 6.156251 3.908237
Ar 7.212336 6.460088 6.175736
Ar 9.027250 4.410893 8.039493
Ar 7.850753 2.582522 6.827066
Ar 3.555088 1.182433 8.288549
10
Lattice="10.0 0 0 0 10.0 0 0 0 10.0" Properties=species:S:1:pos:R:3 pbc="T T T" Time=751
Ar 8.693366 8.643781 4.384664
Ar 9.218603 6.274336 0.175348
Ar 5.720344 2.179811 7.449766
Ar 1.485639 5.823984 0.755950
Ar 1.532748 2.095933 0.828229
Ar 4.015089 9.198187 5.490833
Ar 3.757612 8.760242 8.739870
Ar 4.536735 3.364306 7.856290
Ar 7.093401 4.901056 6.267035
Ar 9.503026 3.630131 0.601846
10
Lattice="10.0 0 0 0 10.0 0 0 0 10.0" Properties=species:S:1:pos:R:3 pbc="T T T" Time=752
Ar 4.390017 2.142060 8.864800
Ar 0.425721 3.580984 9.920834
Ar 0.677860 0.687300 8.277679
Ar 0.967448 7.506726 0.738630
Ar 7.332104 2.089847 0.113387
Ar 9.694682 2.240123 7.073426
Ar 0.302887 1.060397 1.304006
Ar 0.046218 2.317724 7.673092
Ar 6.336048 7.219586 5.707002
Ar 5.450964 6.077829 2.915142
10
Lattice="10.0 0 0 0 10.0 0 0 0 10.0" Properties=species:S:1:pos:R:3 pbc="T T T" Time=753
Ar 0.086668 5.640339 3.344936
Ar 1.632833 0.887635 9.666319
Ar 5.635410 9.194754 9.105580
Ar 0.449263 9.189468 0.721311
Ar 3.131463 2.083758 9.398546
Ar 5.374275 5.282059 8.656019
Ar 6.848161 3.360551 3.868142
Ar 5.555667 1.271175 7.489906
Ar 5.578695 9.538117 5.146969
Ar 1.398899 8.525526 5.228439
10
Lattice="10.0 0 0 0 10.0 0 0 0 10.0" Properties=species:S:1:pos:R:3 pbc="T T T" Time=754
Ar 5.783319 9.138617 7.825071
Ar 2.839946 8.194289 9.411807
Ar 0.592975 7.702174 9.933496
Ar 9.931078 0.872210 0.703992
Ar 8.930822 2.077669 8.683705
Ar 1.290792 8.376302 0.642769
Ar 3.393436 5.660705 6.432281
Ar 0.828177 0.172351 6.902544
Ar 4.821342 1.856648 4.586936
Ar 7.346834 0.973223 7.541735
10
Lattice="10.0 0 0 0 10.0 0 0 0 10.0" Properties=species:S:1:pos:R:3 pbc="T T T" Time=755
Ar 1.479970 2.636896 2.305207
Ar 4.047045 5.500934 9.157294
Ar 5.550540 6.209592 0.761413
Ar 9.412889 2.554947 0.686676
Ar 4.730197 2.071594 7.968861
Ar 7.207309 1.470546 2.629518
Ar 9.938710 7.960858 8.996419
Ar 6.100687 9.073529 6.315180
Ar 4.063989 4.175179 4.026902
Ar 3.294769 3.420920 9.855031
10
Lattice="10.0 0 0 0 10.0 0 0 0 10.0" Properties=species:S:1:pos:R:3 pbc="T T T" Time=756
Ar 7.176618 6.135171 6.785343
Ar 5.254164 2.807579 8.902769
Ar 0.507971 4.716884 1.589200
Ar 8.894701 4.237684 0.669363
Ar 0.529576 2.065526 7.254019
Ar 3.123941 4.564915 4.616412
Ar 6.483985 0.261012 1.560557
Ar 1.373197 7.974707 5.727816
Ar 3.306636 6.493709 3.466868
Ar 9.242701 5.868616 2.168322
10
Lattice="10.0 0 0 0 10.0 0 0 0 10.0" Properties=species:S:1:pos:R:3 pbc="T T T" Time=757
Ar 2.873267 9.633445 1.265481
Ar 6.461281 0.114227 8.648238
Ar 5.465405 3.224177 2.416992
Ar 8.376511 5.920422 0.652048
Ar 6.328957 2.059456 6.539176
Ar 9.040573 7.659284 6.603305
Ar 3.029259 2.561165 4.124696
Ar 6.645708 6.875885 5.140452
Ar 2.549283 8.812240 2.906834
Ar 5.190630 8.316308 4.481616
10
Lattice="10.0 0 0 0 10.0 0 0 0 10.0" Properties=species:S:1:pos:R:3 pbc="T T T" Time=758
Ar 8.569917 3.131720 5.745619
Ar 7.668397 7.420876 8.393706
Ar 0.422886 1.731453 3.244784
Ar 7.858300 7.603148 0.634716
Ar 2.128337 2.053387 5.824332
Ar 4.957205 0.753646 8.590203
Ar 9.574534 4.861319 6.688834
Ar 1.918218 5.777063 4.553088
Ar 1.791931 1.130777 2.346796
Ar 1.138534 0.764029 6.794927
10
Lattice="10.0 0 0 0 10.0 0 0 0 10.0" Properties=species:S:1:pos:R:3 pbc="T T T" Time=759
Ar 4.266571 6.630008 0.225731
Ar 8.875514 4.727523 8.139176
Ar 5.380367 0.238730 4.072575
Ar 7.340089 9.285873 0.617384
Ar 7.927718 2.047318 5.109488
Ar 0.873838 3.848008 0.577102
Ar 6.119807 7.161472 9.252973
Ar 7.190735 4.678234 3.965726
Ar 1.034574 3.449302 1.786783
Ar 7.086433 3.211756 9.108235
10
Lattice="10.0 0 0 0 10.0 0 0 0 10.0" Properties=species:S:1:pos:R:3 pbc="T T T" Time=760
Ar 9.963221 0.128289 4.705839
Ar 0.082630 2.034171 7.884637
Ar 0.337812 8.746022 4.900388
Ar 6.821878 0.968599 0.600060
Ar 3.727113 2.041267 4.394631
Ar 6.790470 6.942370 2.564000
Ar 2.665085 9.461632 1.817116
Ar 2.463252 3.579405 3.378365
Ar 0.277252 5.767811 1.226747
Ar 3.034317 5.659466 1.421557
10
Lattice="10.0 0 0 0 10.0 0 0 0 10.0" Properties=species:S:1:pos:R:3 pbc="T T T" Time=761
Ar 5.659861 3.626567 9.185953
Ar 1.289748 9.340820 7.630097
Ar 5.295256 7.253314 5.728201
Ar 6.303668 2.651327 0.582737
Ar 9.526508 2.035215 3.679775
Ar 2.707075 0.036804 4.550682
Ar 9.210371 1.761794 4.381254
Ar 7.735769 2.480577 2.791003
Ar 9.519959 8.086248 0.666928
Ar 8.982199 8.107173 3.734880
10
Lattice="10.0 0 0 0 10.0 0 0 0 10.0" Properties=species:S:1:pos:R:3 pbc="T T T" Time=762
Ar 1.356464 7.124981 3.666047
Ar 2.496866 6.647470 7.375558
Ar 0.252737 5.760470 6.556033
Ar 5.785459 4.334055 0.565413
Ar 5.325909 2.029158 2.964922
Ar 8.623679 3.131237 6.537363
Ar 5.755656 4.061956 6.945391
Ar 3.008281 1.381754 2.203638
Ar 8.762665 0.404685 0.107108
Ar 4.930083 0.554881 6.048202
10
Lattice="10.0 0 0 0 10.0 0 0 0 10.0" Properties=species:S:1:pos:R:3 pbc="T T T" Time=763
Ar 7.053056 0.623413 8.146115
Ar 3.703984 3.954119 7.121018
Ar 5.210219 4.267625 7.383866
Ar 5.267260 6.016764 0.548114
Ar 1.103264 2.004019 2.299024
Ar 4.540284 6.225671 8.524044
Ar 2.323006 6.381195 9.460586
Ar 8.280777 0.282937 1.616263
Ar 8.005370 2.723122 9.547289
Ar 0.877967 3.002588 8.361525
10
Lattice="10.0 0 0 0 10.0 0 0 0 10.0" Properties=species:S:1:pos:R:3 pbc="T T T" Time=764
Ar 2.749647 4.121846 2.626182
Ar 4.911105 1.260770 6.866480
Ar 0.167697 2.774780 8.211698
Ar 4.749060 7.699474 0.530814
Ar 6.880622 1.978881 1.633127
Ar 0.456889 9.320104 0.510725
Ar 8.890354 8.700434 1.975781
Ar 3.553269 9.184118 1.028888
Ar 7.248075 5.041559 8.987469
Ar 6.825851 5.450296 0.674849
10
Lattice="10.0 0 0 0 10.0 0 0 0 10.0" Properties=species:S:1:pos:R:3 pbc="T T T" Time=765
Ar 8.446237 7.620276 7.106248
Ar 6.118138 8.567401 6.611925
Ar 5.125266 1.281949 9.039542
Ar 4.230866 9.382183 0.513525
Ar 2.657981 1.953743 0.967229
Ar 6.373494 2.414543 2.497398
Ar 5.457698 1.019674 4.490978
Ar 8.825760 8.085299 0.441513
Ar 6.490781 7.359997 8.427650
Ar 2.773735 7.898002 2.988172
10
Lattice="10.0 0 0 0 10.0 0 0 0 10.0" Properties=species:S:1:pos:R:3 pbc="T T T" Time=766
Ar 4.142828 1.118707 1.586314
Ar 7.325171 5.874032 6.357370
Ar 0.082835 9.789117 9.867385
Ar 3.712682 1.064878 0.496231
Ar 8.435339 1.928605 0.301332
Ar 2.290105 5.508985 4.484064
Ar 2.025035 3.338911 7.006181
Ar 4.098240 6.986495 9.854143
Ar 5.733496 9.678428 7.867794
Ar 8.721610 0.345718 5.301531
10
Lattice="10.0 0 0 0 10.0 0 0 0 10.0" Properties=species:S:1:pos:R:3 pbc="T T T" Time=767
Ar 9.839425 4.617137 6.066377
Ar 8.532199 3.180668 6.102806
Ar 5.040405 8.296288 0.695227
Ar 3.194498 2.747570 0.478938
Ar 4.212697 1.903468 9.635436
Ar 8.206716 8.603429 6.470729
Ar 8.592372 5.658148 9.521386
Ar 9.370721 5.887691 9.266775
Ar 4.976207 1.996852 7.307949
Ar 4.669485 2.793432 7.614891
10
Lattice="10.0 0 0 0 10.0 0 0 0 10.0" Properties=species:S:1:pos:R:3 pbc="T T T" Time=768
Ar 5.536090 8.115575 0.546610
Ar 9.739228 0.487304 5.848243
Ar 9.997976 6.803457 1.523068
Ar 2.676248 4.430253 0.461476
Ar 9.990053 1.878332 8.969540
Ar 4.123328 1.697873 8.457394
Ar 5.159708 7.977384 2.036591
Ar 4.643202 4.788886 8.679406
Ar 4.218918 4.315276 6.748103
Ar 0.617360 5.241147 9.928251
10
Lattice="10.0 0 0 0 10.0 0 0 0 10.0" Properties=species:S:1:pos:R:3 pbc="T T T" Time=769
Ar 1.232770 1.614029 5.026841
Ar 0.946241 7.793924 5.593680
Ar 4.955548 5.310627 2.350910
Ar 2.157939 6.112985 0.444063
Ar 5.767464 1.853146 8.303607
Ar 0.039940 4.792317 0.444058
Ar 1.756279 0.305241 4.542233
Ar 9.886449 3.681461 8.101601
Ar 3.457472 6.644502 6.192415
Ar 6.569396 7.678063 2.237441
10
Lattice="10.0 0 0 0 10.0 0 0 0 10.0" Properties=species:S:1:pos:R:3 pbc="T T T" Time=770
Ar 6.929474 5.112493 9.506979
Ar 2.153255 5.100544 5.339117
Ar 9.913117 3.817800 3.178756
Ar 1.639635 7.795714 0.426653
Ar 1.544875 1.827959 7.637675
Ar 5.956552 7.886760 2.430723
Ar 8.352825 2.633090 7.047971
Ar 5.129700 2.574040 7.523810
Ar 2.696022 8.973725 5.636711
Ar 2.521427 0.114978 4.546625
10
Lattice="10.0 0 0 0 10.0 0 0 0 10.0" Properties=species:S:1:pos:R:3 pbc="T T T" Time=771
Ar 2.626135 8.611062 3.987155
Ar 3.360267 2.407163 5.084553
Ar 4.870686 2.324973 4.006602
Ar 1.121334 9.478445 0.409243
Ar 7.322285 1.802772 6.971743
Ar 1.873160 0.981202 4.417390
Ar 4.949414 4.960835 9.553668
Ar 0.372952 1.466618 6.946016
Ar 1.934573 1.302947 5.081007
Ar 8.473459 2.551894 6.855809
10
Lattice="10.0 0 0 0 10.0 0 0 0 10.0" Properties=species:S:1:pos:R:3 pbc="T T T" Time=772
Ar 8.322797 2.109631 8.467331
Ar 4.567279 9.713782 4.829990
Ar 9.828255 0.832145 4.834448
Ar 0.603033 1.161175 0.391833
Ar 3.099696 1.777586 6.305811
Ar 7.789769 4.075644 6.404057
Ar 1.546004 7.288580 2.059366
Ar 5.616203 0.359195 6.368222
Ar 1.173134 3.632110 4.525360
Ar 4.425481 4.988869 9.164936
10
Lattice="10.0 0 0 0 10.0 0 0 0 10.0" Properties=species:S:1:pos:R:3 pbc="T T T" Time=773
Ar 4.019460 5.608195 2.947506
Ar 5.774303 7.020432 4.575448
Ar 4.785849 9.339316 5.662276
Ar 0.084732 2.843906 0.374423
Ar 8.876956 1.752301 5.639895
Ar 3.724676 7.265988 8.588534
Ar 8.142593 9.616325 4.565063
Ar 0.859460 9.251768 5.790433
Ar 0.393362 5.865344 3.771896
Ar 0.377646 7.425947 1.474047
10
Lattice="10.0 0 0 0 10.0 0 0 0 10.0" Properties=species:S:1:pos:R:3 pbc="T T T" Time=774
Ar 9.716123 9.106759 7.427682
Ar 6.981317 4.327075 4.320889
Ar 9.743442 7.846487 6.490104
Ar 9.566431 4.526637 0.357013
Ar 4.654214 1.727018 4.973980
Ar 9.659582 0.456334 0.773010
Ar 4.739182 1.944070 7.070761
Ar 6.102729 8.144347 5.212659
Ar 9.613591 8.098580 3.018433
Ar 6.329810 9.863025 3.783159
10
Lattice="10.0 0 0 0 10.0 0 0 0 10.0" Properties=species:S:1:pos:R:3 pbc="T T T" Time=775
Ar 5.412785 2.605322 1.907857
Ar 8.188333 1.633716 4.066330
Ar 4.701035 6.353659 7.317932
Ar 9.048131 6.209367 0.339604
Ar 0.431473 1.701739 4.308066
Ar 5.594489 3.646680 2.957485
Ar 1.335770 4.271813 9.576456
Ar 1.345999 7.036926 4.634887
Ar 8.833819 0.331814 2.264971
Ar 2.281975 2.300104 6.092269
10
Lattice="10.0 0 0 0 10.0 0 0 0 10.0" Properties=species:S:1:pos:R:3 pbc="T T T" Time=776
Ar 1.109446 6.103955 6.388085
Ar 9.395349 8.940358 3.811772
Ar 9.658629 4.860761 8.145709
Ar 8.529830 7.892098 0.322194
Ar 6.208731 1.676459 3.642140
Ar 1.529395 6.837026 5.141961
Ar 7.932358 6.599556 2.082164
Ar 6.589267 5.929498 4.057119
Ar 8.054047 2.565047 1.511509
Ar 8.234141 4.737188 8.401373
10
Lattice="10.0 0 0 0 10.0 0 0 0 10.0" Properties=species:S:1:pos:R:3 pbc="T T T" Time=777
Ar 6.806091 9.602504 0.868227
Ar 0.602355 6.247003 3.557218
Ar 4.616224 3.367862 8.973485
Ar 8.011529 9.574829 0.304784
Ar 1.985995 1.651180 2.976215
Ar 7.464316 0.027457 7.326522
Ar 4.528947 8.927299 4.587872
Ar 1.832536 4.822070 3.479351
Ar 7.274277 4.798277 0.758040
Ar 4.186309 7.174272 0.710478
10
Lattice="10.0 0 0 0 10.0 0 0 0 10.0" Properties=species:S:1:pos:R:3 pbc="T T T" Time=778
Ar 2.502707 3.101000 5.348461
Ar 1.809362 3.553648 3.302664
Ar 9.573953 1.874974 9.801240
Ar 7.493230 1.257565 0.287369
Ar 7.763258 1.625901 2.310290
Ar 3.399269 3.217942 9.510988
Ar 1.125535 1.255039 7.093582
Ar 7.075802 3.714641 2.901587
Ar 6.494507 7.031506 0.004571
Ar 0.138340 9.611345 3.019608
10
Lattice="10.0 0 0 0 10.0 0 0 0 10.0" Properties=species:S:1:pos:R:3 pbc="T T T" Time=779
Ar 8.199135 6.599500 9.828783
Ar 3.016351 0.860315 3.048111
Ar 4.531681 0.382086 0.628993
Ar 6.975119 2.940296 0.269866
Ar 3.540521 1.600621 1.644366
Ar 9.334222 6.408428 1.695454
Ar 7.722123 3.582778 9.599292
Ar 2.319086 2.607192 2.323822
Ar 5.714738 9.264736 9.251102
Ar 6.090372 2.048417 5.328738
10
Lattice="10.0 0 0 0 10.0 0 0 0 10.0" Properties=species:S:1:pos:R:3 pbc="T T T" Time=780
Ar 3.895567 0.097999 4.309113
Ar 4.223337 8.166983 2.793550
Ar 9.489417 8.889200 1.456745
Ar 6.456999 4.623022 0.252351
Ar 9.317787 1.575337 0.978453
Ar 5.269175 9.598914 3.879919
Ar 4.318712 5.910517 2.105003
Ar 7.562368 1.499750 1.746059
Ar 4.934968 1.497965 8.497634
Ar 2.042404 4.485489 7.637868
10
Lattice="10.0 0 0 0 10.0 0 0 0 10.0" Properties=species:S:1:pos:R:3 pbc="T T T" Time=781
Ar 9.591994 3.596500 8.789435
Ar 5.430309 5.473610 2.539047
Ar 4.447163 7.396301 2.284488
Ar 5.938745 6.305634 0.234955
Ar 5.095091 1.550069 0.312487
Ar 1.204133 2.789399 6.064393
Ar 0.915433 8.238368 4.610594
Ar 2.805608 0.392352 1.168309
Ar 4.155205 3.731188 7.744157
Ar 7.994437 6.922560 9.946998
10
Lattice="10.0 0 0 0 10.0 0 0 0 10.0" Properties=species:S:1:pos:R:3 pbc="T T T" Time=782
Ar 5.288325 7.095038 3.269789
Ar 6.637275 2.780230 2.284535
Ar 9.404910 5.903400 3.112230
Ar 5.420492 7.988246 0.217559
Ar 0.872417 1.524804 9.646511
Ar 7.139194 5.979859 8.248845
Ar 7.512153 0.566215 7.116184
Ar 8.048827 9.284953 0.590569
Ar 3.375442 5.964411 6.990680
Ar 3.946469 9.359632 2.256128
10
Lattice="10.0 0 0 0 10.0 0 0 0 10.0" Properties=species:S:1:pos:R:3 pbc="T T T" Time=783
Ar 0.984655 0.593577 7.750144
Ar 7.844245 0.086839 2.030029
Ar 4.362650 4.410508 3.939973
Ar 4.902231 9.670856 0.200160
Ar 6.649746 1.499540 8.980534
Ar 3.074255 9.170319 0.433296
Ar 4.108874 2.894061 9.621774
Ar 3.292043 8.177554 0.012830
Ar 2.595679 8.197634 6.237203
Ar 9.898511 1.796707 4.565257
10
Lattice="10.0 0 0 0 10.0 0 0 0 10.0" Properties=species:S:1:pos:R:3 pbc="T T T" Time=784
Ar 6.680986 4.092114 2.230500
Ar 9.051214 7.393449 1.775522
Ar 9.320391 2.917616 4.767717
Ar 4.383969 1.353465 0.182759
Ar 2.427074 1.474276 8.314557
Ar 9.009316 2.360779 2.617746
Ar 0.705594 5.221908 2.127364
Ar 8.535261 7.070155 9.435091
Ar 1.815916 0.430857 5.483726
Ar 5.850552 4.233784 6.874386
10
Lattice="10.0 0 0 0 10.0 0 0 0 10.0" Properties=species:S:1:pos:R:3 pbc="T T T" Time=785
Ar 2.377317 7.590652 6.710856
Ar 0.258184 4.700058 1.521016
Ar 4.278132 1.424724 5.595460
Ar 3.865737 3.036085 0.165356
Ar 8.204405 1.449013 7.648579
Ar 4.944385 5.551087 4.802139
Ar 7.302314 7.549756 4.632954
Ar 3.778440 5.962894 8.857413
Ar 1.036153 2.664080 4.730248
Ar 1.802593 6.670861 9.183514
10
Lattice="10.0 0 0 0 10.0 0 0 0 10.0" Properties=species:S:1:pos:R:3 pbc="T T T" Time=786
Ar 8.073647 1.089191 1.191212
Ar 1.465154 2.006670 1.266514
Ar 9.235874 9.931834 6.423211
Ar 3.347506 4.718705 0.147955
Ar 3.981734 1.423750 6.982600
Ar 0.879454 8.741392 6.986524
Ar 3.899035 9.877603 7.138544
Ar 9.021618 4.855632 8.279729
Ar 0.256390 4.897302 3.976770
Ar 7.754633 9.107938 1.492643
10
Lattice="10.0 0 0 0 10.0 0 0 0 10.0" Properties=species:S:1:pos:R:3 pbc="T T T" Time=787
Ar 3.769976 4.587730 5.671565
Ar 2.672123 9.313281 1.012012
Ar 4.193617 8.438944 7.250963
Ar 2.829276 6.401325 0.130554
Ar 9.759064 1.398487 6.316621
Ar 6.814522 1.931697 9.170909
Ar 0.495757 2.205450 9.644133
Ar 4.264807 3.748366 7.702045
Ar 9.476627 7.130524 3.223292
Ar 3.706662 1.545019 3.801776
10
Lattice="10.0 0 0 0 10.0 0 0 0 10.0" Properties=species:S:1:pos:R:3 pbc="T T T" Time=788
Ar 9.466308 8.086286 0.151916
Ar 3.879092 6.619892 0.757511
Ar 9.151349 6.946061 8.078711
Ar 2.311045 8.083944 0.113153
Ar 5.536398 1.373317 5.650633
Ar 2.749599 5.121995 1.355298
Ar 7.092474 4.533205 2.149733
Ar 9.507997 2.641101 7.124360
Ar 8.696864 9.363746 2.469813
Ar 9.658689 3.982084 6.110911
10
Lattice="10.0 0 0 0 10.0 0 0 0 10.0" Properties=species:S:1:pos:R:3 pbc="T T T" Time=789
Ar 5.162638 1.584845 4.632259
Ar 5.086062 3.926504 0.503010
Ar 4.109081 5.453179 8.906458
Ar 1.792815 9.766563 0.095752
Ar 1.313732 1.348147 4.984644
Ar 8.684677 8.312292 3.539686
Ar 3.689192 6.860960 4.655332
Ar 4.751188 1.533832 6.546682
Ar 7.917101 1.596968 1.716335
Ar 5.610715 6.419149 8.420046
10
Lattice="10.0 0 0 0 10.0 0 0 0 10.0" Properties=species:S:1:pos:R:3 pbc="T T T" Time=790
Ar 0.858967 5.083406 9.112606
Ar 6.293049 1.233126 0.248505
Ar 9.066813 3.960294 9.734201
Ar 1.274581 1.449188 0.078349
Ar 7.091066 1.322977 4.318655
Ar 4.619743 1.502573 5.724081
Ar 0.285909 9.188715 7.160932
Ar 9.994374 0.426519 5.969039
Ar 7.137337 3.830192 0.962859
Ar 1.562747 8.856258 0.729147
10
Lattice="10.0 0 0 0 10.0 0 0 0 10.0" Properties=species:S:1:pos:R:3 pbc="T T T" Time=791
Ar 6.555301 8.581967 3.592932
Ar 7.500038 8.539745 9.994004
Ar 4.024517 2.467396 0.561949
Ar 0.756346 3.131813 0.060945
Ar 2.868400 1.297806 3.652667
Ar 0.554809 4.692854 7.908476
Ar 6.882627 1.516470 9.666531
Ar 5.237556 9.319205 5.391415
Ar 6.357574 6.063415 0.209382
Ar 7.514804 1.293383 3.038240
10
Lattice="10.0 0 0 0 10.0 0 0 0 10.0" Properties=species:S:1:pos:R:3 pbc="T T T" Time=792
Ar 2.251642 2.080533 8.073256
Ar 8.707026 5.846362 9.739502
Ar 8.982220 0.974494 1.389696
Ar 0.238112 4.814439 0.043541
Ar 8.645735 1.272636 2.986677
Ar 6.489873 7.883135 0.092872
Ar 3.479352 3.844193 2.172162
Ar 0.480731 8.211923 4.813761
Ar 5.577804 8.296639 9.455909
Ar 3.466861 3.730507 5.347333
10
Lattice="10.0 0 0 0 10.0 0 0 0 10.0" Properties=species:S:1:pos:R:3 pbc="T T T" Time=793
Ar 7.947987 5.579096 2.553575
Ar 9.914015 3.152979 9.485000
Ar 3.939923 9.481593 2.217443
Ar 9.719877 6.497065 0.026139
Ar 4.423069 1.247466 2.320688
Ar 2.424938 1.073417 2.277266
Ar 0.076078 6.171916 4.677791
Ar 5.723902 7.104643 4.236111
Ar 4.798034 0.529862 8.702437
Ar 9.418919 6.167631 7.656427
10
Lattice="10.0 0 0 0 10.0 0 0 0 10.0" Properties=species:S:1:pos:R:3 pbc="T T T" Time=794
Ar 3.644331 9.077659 7.033895
Ar 1.120982 0.459612 9.230493
Ar 8.897638 7.988680 3.045129
Ar 9.201666 8.179675 0.008742
Ar 0.200391 1.222307 1.654759
Ar 8.360160 4.263629 4.461770
Ar 6.672804 8.499639 7.183420
Ar 0.967074 5.997363 3.658461
Ar 4.018106 2.763156 7.948854
Ar 5.370977 8.604756 9.965521
10
Lattice="10.0 0 0 0 10.0 0 0 0 10.0" Properties=species:S:1:pos:R:3 pbc="T T T" Time=795
Ar 9.340675 2.576221 1.514214
Ar 2.327948 7.766244 8.975986
Ar 3.855351 6.495729 3.872813
Ar 8.683456 9.862286 9.991349
Ar 5.977738 1.197182 0.988833
Ar 4.295358 7.453846 6.646274
Ar 3.269530 0.827362 9.689049
Ar 6.210245 4.890083 3.080812
Ar 3.238177 4.996450 7.195271
Ar 1.323034 1.041880 2.274611
10
Lattice="10.0 0 0 0 10.0 0 0 0 10.0" Properties=species:S:1:pos:R:3 pbc="T T T" Time=796
Ar 5.037018 6.074783 5.994533
Ar 3.534916 5.072876 8.721477
Ar 8.813063 5.002779 4.700498
Ar 8.165245 1.544896 9.973955
Ar 1.755086 1.172057 0.322909
Ar 0.230555 0.644062 8.830779
Ar 9.866258 3.155085 2.194677
Ar 1.453417 3.782802 2.503163
Ar 2.458249 7.229745 6.441687
Ar 7.275091 3.479005 4.583702
10
Lattice="10.0 0 0 0 10.0 0 0 0 10.0" Properties=species:S:1:pos:R:3 pbc="T T T" Time=797
Ar 0.733360 9.573347 0.474851
Ar 4.741883 2.379508 8.466969
Ar 3.770774 3.509830 5.528182
Ar 7.647034 3.227505 9.956561
Ar 7.532433 1.146932 9.656985
Ar 6.165753 3.834280 1.015283
Ar 6.462986 5.482808 4.700304
Ar 6.696590 2.675521 1.925514
Ar 1.678320 9.463037 5.688104
Ar 3.227149 5.916128 6.892795
10
Lattice="10.0 0 0 0 10.0 0 0 0 10.0" Properties=species:S:1:pos:R:3 pbc="T T T" Time=798
Ar 6.429702 3.071911 4.955169
Ar 5.948850 9.686139 8.212461
Ar 8.728492 2.016888 6.355867
Ar 7.128820 4.910116 9.939167
Ar 3.309788 1.121810 8.991067
Ar 2.100948 7.024495 3.199779
Ar 3.059670 7.810515 7.205922
Ar 1.939807 1.568257 1.347873
Ar 0.898390 1.696330 4.934521
Ar 9.179200 8.353243 9.201887
10
Lattice="10.0 0 0 0 10.0 0 0 0 10.0" Properties=species:S:1:pos:R:3 pbc="T T T" Time=799
Ar 2.126045 6.570475 9.435487
Ar 7.155816 6.992770 7.957953
Ar 3.686210 0.523944 7.183551
Ar 6.610629 6.592733 9.921756
Ar 9.087142 1.096673 8.325147
Ar 8.036094 0.214785 5.384237
Ar 9.656356 0.138222 9.711541
Ar 7.183050 0.460926 0.770293
Ar 0.118460 3.929624 4.180938
Ar 5.131251 0.790360 1.510980
10
Lattice="10.0 0 0 0 10.0 0 0 0 10.0" Properties=species:S:1:pos:R:3 pbc="T T T" Time=800
Ar 7.822387 0.069040 3.915804
Ar 8.362782 4.299401 7.703445
Ar 8.643927 9.031001 8.011237
Ar 6.092438 8.275350 9.904344
Ar 4.864498 1.071536 7.659224
Ar 3.971240 3.405074 7.568695
Ar 6.253041 2.465929 2.217160
Ar 2.426293 9.353595 0.192714
Ar 9.338531 6.162917 3.427353
Ar 1.083302 3.227477 3.820073
10
Lattice="10.0 0 0 0 10.0 0 0 0 10.0" Properties=species:S:1:pos:R:3 pbc="T T T" Time=801
Ar 3.518729 3.567604 8.396121
Ar 9.569752 1.606034 7.448924
Ar 3.601643 7.538057 8.838923
Ar 5.574243 9.957965 9.886946
Ar 0.641841 1.046421 6.993271
Ar 9.906386 6.595363 9.753152
Ar 2.849741 4.793614 4.722809
Ar 7.669542 8.246263 9.615134
Ar 8.558603 8.396210 2.673769
Ar 7.035344 5.664595 6.129170
10
Lattice="10.0 0 0 0 10.0 0 0 0 10.0" Properties=species:S:1:pos:R:3 pbc="T T T" Time=802
Ar 9.215071 7.066168 2.876438
Ar 0.776722 8.912667 7.194402
Ar 8.559360 6.045114 9.666609
Ar 5.056048 1.640579 9.869548
Ar 6.419185 1.021303 6.327318
Ar 5.841531 9.785656 1.937609
Ar 9.446440 7.121300 7.228458
Ar 2.912790 7.138931 9.037554
Ar 7.778675 0.629504 1.920184
Ar 2.987386 8.101713 8.438266
10
Lattice="10.0 0 0 0 10.0 0 0 0 10.0" Properties=species:S:1:pos:R:3 pbc="T T T" Time=803
Ar 4.911413 0.564732 7.356755
Ar 1.983504 6.219399 6.939961
Ar 3.517077 4.552170 0.494295
Ar 4.537852 3.323195 9.852151
Ar 2.196718 0.996086 5.661284
Ar 1.776677 2.975948 4.122066
Ar 6.043140 9.448985 9.734106
Ar 8.156038 6.031598 8.459972
Ar 6.998747 2.862797 1.166600
Ar 8.939429 0.538831 0.747363
10
Lattice="10.0 0 0 0 10.0 0 0 0 10.0" Properties=species:S:1:pos:R:3 pbc="T T T" Time=804
Ar 0.607755 4.063296 1.837073
Ar 3.190288 3.526138 6.685519
Ar 8.474793 3.059226 1.321981
Ar 4.019655 5.005811 9.834753
Ar 7.974251 0.970870 4.995251
Ar 7.711811 6.166234 6.306524
Ar 2.639835 1.776665 2.239754
Ar 3.399283 4.924205 7.882429
Ar 6.218830 5.096096 0.413016
Ar 4.891478 2.976007 3.056423
10
Lattice="10.0 0 0 0 10.0 0 0 0 10.0" Properties=species:S:1:pos:R:3 pbc="T T T" Time=805
Ar 6.304098 7.561860 6.317390
Ar 4.397072 0.832878 6.431076
Ar 3.432480 1.566316 2.149686
Ar 3.501486 6.688394 9.817335
Ar 3.751784 0.945651 4.329219
Ar 3.646946 9.356522 8.490980
Ar 9.236530 4.104343 4.745402
Ar 8.642527 3.816813 7.304885
Ar 5.438915 7.329395 9.659434
Ar 0.843528 5.413184 5.365483
10
Lattice="10.0 0 0 0 10.0 0 0 0 10.0" Properties=species:S:1:pos:R:3 pbc="T T T" Time=806
Ar 2.000444 1.060427 0.797708
Ar 5.603853 8.139595 6.176613
Ar 8.390163 0.073405 2.977390
Ar 2.983314 8.370976 9.799931
Ar 9.529317 0.920431 3.663187
Ar 9.582080 2.546810 0.675436
Ar 5.833223 6.432019 7.251049
Ar 3.885770 2.709443 6.727346
Ar 4.659007 9.562695 8.905853
Ar 6.795581 7.850361 7.674545
10
Lattice="10.0 0 0 0 10.0 0 0 0 10.0" Properties=species:S:1:pos:R:3 pbc="T T T" Time=807
Ar 7.696790 4.558993 5.278025
Ar 6.810637 5.446312 5.922157
Ar 3.347845 8.580495 3.805088
Ar 2.465127 0.053553 9.782528
Ar 5.306848 0.895210 2.997153
Ar 5.517213 5.737099 2.859894
Ar 2.429909 8.759690 9.756691
Ar 9.129012 1.602072 6.149810
Ar 3.879113 1.795999 8.152271
Ar 2.747641 0.287544 9.983609
10
Lattice="10.0 0 0 0 10.0 0 0 0 10.0" Properties=species:S:1:pos:R:3 pbc="T T T" Time=808
Ar 3.393137 8.057560 9.758342
Ar 8.017406 2.753047 5.667675
Ar 8.305465 7.087539 4.632748
Ar 1.946935 1.736125 9.765128
Ar 1.084442 0.870036 2.331157
Ar 1.452344 8.927390 5.044350
Ar 9.026574 1.087312 2.262332
Ar 4.372254 0.494701 5.572274
Ar 3.099226 4.029308 7.398688
Ar 8.699739 2.724758 2.292700
10
Lattice="10.0 0 0 0 10.0 0 0 0 10.0" Properties=species:S:1:pos:R:3 pbc="T T T" Time=809
Ar 9.089586 1.556026 4.238586
Ar 9.224073 0.059883 5.413267
Ar 3.263084 5.594582 5.460408
Ar 0.495161 6.272247 1.257684
Ar 6.862036 0.844862 1.665161
Ar 7.387475 2.117680 7.228806
Ar 5.623216 3.414625 4.767955
Ar 9.615496 9.387330 4.994738
Ar 2.319340 6.262621 6.645101
Ar 5.585440 2.308727 3.091855
10
Lattice="10.0 0 0 0 10.0 0 0 0 10.0" Properties=species:S:1:pos:R:3 pbc="T T T" Time=810
Ar 4.786035 5.054491 8.718830
Ar 0.430740 7.366719 5.158859
Ar 8.220702 4.101625 6.288068
Ar 9.043388 0.808370 2.750239
Ar 2.639644 0.819685 0.999167
Ar 3.322606 5.307970 9.413262
Ar 2.219855 5.741880 7.273577
Ar 4.858739 8.279959 4.417202
Ar 1.539455 8.495933 5.891514
Ar 2.471127 1.892756 3.891010
10
Lattice="10.0 0 0 0 10.0 0 0 0 10.0" Properties=species:S:1:pos:R:3 pbc="T T T" Time=811
Ar 0.482482 8.552982 3.199057
Ar 1.645509 4.659618 4.895806
Ar 3.178357 2.608643 7.115684
Ar 7.591615 5.344493 4.242794
Ar 8.417255 0.794506 0.333169
Ar 9.257737 8.498260 1.597719
Ar 8.816494 8.069145 9.779213
Ar 0.093883 7.186500 3.848329
Ar 0.759533 0.729271 5.137973
Ar 9.356812 1.476779 4.690154
10
Lattice="10.0 0 0 0 10.0 0 0 0 10.0" Properties=species:S:1:pos:R:3 pbc="T T T" Time=812
Ar 6.178990 2.051461 7.679255
Ar 2.860248 1.952488 4.632733
Ar 8.136011 1.115661 7.943299
Ar 6.139841 9.880616 5.735349
Ar 4.194866 0.769326 9.667170
Ar 5.192810 1.688559 3.782209
Ar 5.413131 0.396410 2.284846
Ar 5.329027 6.093041 3.279455
Ar 9.979640 2.962640 4.384450
Ar 6.242497 1.060802 5.489298
10
Lattice="10.0 0 0 0 10.0 0 0 0 10.0" Properties=species:S:1:pos:R:3 pbc="T T T" Time=813
Ar 1.875531 5.550020 2.159429
Ar 4.074988 9.245358 4.369661
Ar 3.093666 9.622679 8.770914
Ar 4.688067 4.416738 7.227904
Ar 9.972476 0.744149 9.001170
Ar 1.127878 4.878863 5.966707
Ar 2.009763 2.723668 4.790455
Ar 0.564150 4.999502 2.710621
Ar 9.199801 5.195980 3.630946
Ar 3.128126 0.644855 6.288425
10
Lattice="10.0 0 0 0 10.0 0 0 0 10.0" Properties=species:S:1:pos:R:3 pbc="T T T" Time=814
Ar 7.572064 9.048586 6.639606
Ar 5.289725 6.538228 4.106589
Ar 8.051331 8.129693 9.598532
Ar 3.236273 8.952635 8.720506
Ar 5.750085 0.718973 8.335170
Ar 7.062940 8.069184 8.151206
Ar 8.606397 5.050914 7.296050
Ar 5.799273 3.905963 2.141787
Ar 8.419962 7.429320 2.877442
Ar 0.013782 0.229125 7.087511
10
Lattice="10.0 0 0 0 10.0 0 0 0 10.0" Properties=species:S:1:pos:R:3 pbc="T T T" Time=815
Ar 3.268688 2.547191 1.119744
Ar 6.504463 3.831096 3.843515
Ar 3.008996 6.636705 0.426152
Ar 1.784480 3.488531 0.213108
Ar 1.527694 0.693796 7.669170
Ar 2.998001 1.259506 0.335708
Ar 5.203032 7.378158 9.801644
Ar 1.034357 2.812379 1.572955
Ar 7.640070 9.662668 2.123972
Ar 6.899437 9.813396 7.886599
10
Lattice="10.0 0 0 0 10.0 0 0 0 10.0" Properties=species:S:1:pos:R:3 pbc="T T T" Time=816
Ar 8.965318 6.045809 5.599859
Ar 7.719201 1.123965 3.580442
Ar 7.966686 5.143719 1.253809
Ar 0.332686 8.024427 1.705710
Ar 7.305301 0.668622 7.003171
Ar 8.933031 4.449812 2.520197
Ar 1.799666 9.705401 2.307237
Ar 6.269441 1.718794 1.004122
Ar 6.860178 1.896016 1.370503
Ar 3.785094 9.397668 8.685686
10
Lattice="10.0 0 0 0 10.0 0 0 0 10.0" Properties=species:S:1:pos:R:3 pbc="T T T" Time=817
Ar 4.661988 9.544504 0.080033
Ar 8.933939 8.416833 3.317369
Ar 2.924372 3.650732 2.081468
Ar 8.880900 2.560357 3.198259
Ar 3.082908 0.643447 6.337170
Ar 4.868046 7.640028 4.704633
Ar 8.396306 2.032646 4.812829
Ar 1.504492 0.625189 0.435336
Ar 6.080286 4.129363 0.617034
Ar 0.670752 8.981941 9.484773
10
Lattice="10.0 0 0 0 10.0 0 0 0 10.0" Properties=species:S:1:pos:R:3 pbc="T T T" Time=818
Ar 0.358658 3.043198 4.560207
Ar 0.148678 5.709700 3.054299
Ar 7.882032 2.157764 2.909092
Ar 7.429110 7.096283 4.690806
Ar 8.860515 0.618273 5.671170
Ar 0.803086 0.830225 6.889103
Ar 4.992949 4.359895 7.318423
Ar 7.015997 9.614521 0.038008
Ar 5.023938 6.279776 9.692102
Ar 7.556409 8.566214 0.283860
10
Lattice="10.0 0 0 0 10.0 0 0 0 10.0" Properties=species:S:1:pos:R:3 pbc="T T T" Time=819
Ar 6.055329 6.541893 9.040382
Ar 1.363417 3.002567 2.791230
Ar 2.839691 0.664796 3.736716
Ar 5.977331 1.632221 6.183315
Ar 4.638122 0.593098 5.005169
Ar 6.738127 4.020422 9.073573
Ar 1.589582 6.687133 9.824055
Ar 2.527507 8.603864 9.640687
Ar 3.967591 8.430188 8.767169
Ar 4.442060 8.150475 1.082941
10
Lattice="10.0 0 0 0 10.0 0 0 0 10.0" Properties=species:S:1:pos:R:3 pbc="T T T" Time=820
Ar 1.752001 0.040588 3.520557
Ar 2.578157 0.295434 2.528160
Ar 7.797350 9.171828 4.564340
Ar 4.525552 6.168159 7.675825
Ar 0.415724 0.567923 4.339166
Ar 2.673174 7.210619 1.258047
Ar 8.186214 9.014369 2.329687
Ar 8.038916 7.593403 9.243320
Ar 2.911244 0.580600 7.842238
Ar 1.327813 7.734540 1.882067
10
Lattice="10.0 0 0 0 10.0 0 0 0 10.0" Properties=species:S:1:pos:R:3 pbc="T T T" Time=821
Ar 7.448674 3.539284 8.000731
Ar 3.792896 7.588302 2.265090
Ar 2.755001 7.678859 5.391959
Ar 3.073782 0.704104 9.168342
Ar 6.193323 0.542739 3.673160
Ar 8.608222 0.400814 3.442521
Ar 4.782840 1.341595 4.835319
Ar 3.550279 6.582958 8.845977
Ar 1.854941 2.731009 6.917272
Ar 8.213570 7.318605 2.681202
10
Lattice="10.0 0 0 0 10.0 0 0 0 10.0" Properties=species:S:1:pos:R:3 pbc="T T T" Time=822
Ar 3.145264 7.037919 2.481038
Ar 5.007772 4.881214 2.001857
Ar 7.712650 6.185891 6.219585
Ar 1.622013 5.240050 0.660860
Ar 1.970871 0.517577 3.007186
Ar 4.543344 3.590979 5.626960
Ar 1.379466 3.668820 7.340945
Ar 9.061643 5.572514 8.448634
Ar 0.798639 4.881418 5.992307
Ar 5.099252 6.902696 3.480371
10
Lattice="10.0 0 0 0 10.0 0 0 0 10.0" Properties=species:S:1:pos:R:3 pbc="T T T" Time=823
Ar 8.841854 0.536554 6.961344
Ar 6.222649 2.174125 1.738623
Ar 2.670299 4.692922 7.047212
Ar 0.170243 9.775995 2.153378
Ar 7.748426 0.492408 2.341203
Ar 0.478472 6.781144 7.811399
Ar 7.976080 5.996053 9.846581
Ar 4.573006 4.562069 8.051291
Ar 9.742336 7.031828 5.067341
Ar 1.984934 6.486786 4.279539
10
Lattice="10.0 0 0 0 10.0 0 0 0 10.0" Properties=species:S:1:pos:R:3 pbc="T T T" Time=824
Ar 4.538435 4.035192 1.441647
Ar 7.437526 9.467033 1.475387
Ar 7.627946 3.199954 7.874837
Ar 8.718473 4.311939 3.645896
Ar 3.525982 0.467239 1.675219
Ar 6.413599 9.971309 9.995838
Ar 4.572701 8.323270 2.352234
Ar 0.084369 3.551624 7.653951
Ar 8.686026 9.182253 4.142356
Ar 8.870625 6.070879 5.078714
10
Lattice="10.0 0 0 0 10.0 0 0 0 10.0" Properties=species:S:1:pos:R:3 pbc="T T T" Time=825
Ar 0.235016 7.533829 5.921950
Ar 8.652399 6.759944 1.212149
Ar 2.585585 1.706986 8.702457
Ar 7.266707 8.847883 5.138413
Ar 9.303539 0.442067 1.009238
Ar 2.348727 3.161474 2.180278
Ar 1.169322 0.650486 4.857888
Ar 5.595742 2.541179 7.256615
Ar 7.629712 1.332679 3.217371
Ar 5.756320 5.654970 5.877886
10
Lattice="10.0 0 0 0 10.0 0 0 0 10.0" Properties=species:S:1:pos:R:3 pbc="T T T" Time=826
Ar 5.931597 1.032467 0.402252
Ar 9.867289 4.052849 0.948933
Ar 7.543219 0.214018 9.530077
Ar 5.814940 3.383820 6.630925
Ar 5.081093 0.416899 0.343255
Ar 8.283840 6.351647 4.364696
Ar 7.765944 2.977698 7.363544
Ar 1.107119 1.530734 6.859280
Ar 6.573398 3.483106 2.292388
Ar 2.642016 5.239068 6.677064
10
Lattice="10.0 0 0 0 10.0 0 0 0 10.0" Properties=species:S:1:pos:R:3 pbc="T T T" Time=827
Ar 1.628179 4.531105 4.882556
Ar 1.082178 1.345753 0.685717
Ar 2.500854 8.721049 0.357698
Ar 4.363172 7.919758 8.123438
Ar 0.858647 0.391730 9.677271
Ar 4.218953 9.541820 6.549113
Ar 4.362567 5.304910 9.869199
Ar 6.618496 0.520289 6.461944
Ar 5.517083 5.633533 1.367405
Ar 9.527711 4.823165 7.476241
10
Lattice="10.0 0 0 0 10.0 0 0 0 10.0" Properties=species:S:1:pos:R:3 pbc="T T T" Time=828
Ar 7.324091 8.029275 9.362821
Ar 2.297068 8.638657 0.422500
Ar 7.458505 7.228073 1.185310
Ar 2.911394 2.455698 9.615946
Ar 6.636853 0.367035 9.011334
Ar 0.154066 2.731994 8.733531
Ar 0.959200 7.632121 2.374859
Ar 2.129873 9.509844 6.064609
Ar 4.460768 7.783962 0.442422
Ar 6.413407 4.407263 8.275419
10
Lattice="10.0 0 0 0 10.0 0 0 0 10.0" Properties=species:S:1:pos:R:3 pbc="T T T" Time=829
Ar 3.020004 1.527445 3.843086
Ar 3.511983 5.931673 0.159402
Ar 2.416159 5.735093 2.012924
Ar 1.459617 6.991632 1.108459
Ar 2.415030 0.342232 8.345277
Ar 6.089176 5.922172 0.917943
Ar 7.555819 9.959326 4.880500
Ar 7.641253 8.499399 5.667273
Ar 3.404468 9.934394 9.517458
Ar 3.299102 3.991361 9.074596
10
Lattice="10.0 0 0 0 10.0 0 0 0 10.0" Properties=species:S:1:pos:R:3 pbc="T T T" Time=830
Ar 8.715918 5.025619 8.323334
Ar 4.726894 3.224692 9.896300
Ar 7.373815 4.242105 2.840555
Ar 0.007841 1.527567 2.600972
Ar 8.193206 0.317433 7.679221
Ar 2.024284 9.112350 3.102354
Ar 4.152436 2.286531 7.386143
Ar 3.152634 7.488955 5.269937
Ar 2.348172 2.084824 8.592495
Ar 0.184797 3.575459 9.873774
10
Lattice="10.0 0 0 0 10.0 0 0 0 10.0" Properties=species:S:1:pos:R:3 pbc="T T T" Time=831
Ar 4.411832 8.523792 2.803583
Ar 5.941813 0.517718 9.633192
Ar 2.331483 2.749093 3.668212
Ar 8.556043 6.063527 4.093470
Ar 3.971330 0.292656 7.013103
Ar 7.959395 2.302528 5.286766
Ar 0.749050 4.613790 9.891758
Ar 8.664017 6.478456 4.872631
Ar 1.291927 4.235233 7.667592
Ar 7.070491 3.159549 0.672946
10
Lattice="10.0 0 0 0 10.0 0 0 0 10.0" Properties=species:S:1:pos:R:3 pbc="T T T" Time=832
Ar 0.107744 2.021968 7.283829
Ar 7.156732 7.810745 9.370086
Ar 7.289151 1.256080 4.495870
Ar 7.104245 0.599487 5.585968
Ar 9.749454 0.267878 6.346984
Ar 3.894507 5.492707 7.471178
Ar 7.345672 6.941049 2.397364
Ar 4.175401 5.467957 4.475325
Ar 0.235674 6.385639 6.742694
Ar 3.956186 2.743638 1.472121
10
Lattice="10.0 0 0 0 10.0 0 0 0 10.0" Properties=species:S:1:pos:R:3 pbc="T T T" Time=833
Ar 5.803655 5.520143 1.764075
Ar 8.371652 5.103772 9.106980
Ar 2.246819 9.763068 5.323528
Ar 5.654462 5.143190 7.093005
Ar 5.527578 0.243100 5.680866
Ar 9.829618 8.682885 9.655589
Ar 3.942292 9.268310 4.902977
Ar 9.684770 4.449715 4.063481
Ar 9.179423 8.536045 5.817790
Ar 0.841881 2.327729 2.271296
10
Lattice="10.0 0 0 0 10.0 0 0 0 10.0" Properties=species:S:1:pos:R:3 pbc="T T T" Time=834
Ar 1.499571 9.018334 6.244330
Ar 9.586571 2.396798 8.843874
Ar 7.204520 8.270174 6.150990
Ar 4.204644 9.686775 8.600236
Ar 1.305701 0.218307 5.014740
Ar 5.764729 1.873063 1.840002
Ar 0.538913 1.595570 7.408590
Ar 5.194139 3.431473 3.651636
Ar 8.123172 0.686451 4.892885
Ar 7.727576 1.911819 3.070472
10
Lattice="10.0 0 0 0 10.0 0 0 0 10.0" Properties=species:S:1:pos:R:3 pbc="T T T" Time=835
Ar 7.195485 2.516524 0.724585
Ar 0.801491 9.689825 8.580768
Ar 2.162188 6.777289 6.978461
Ar 2.754825 4.230360 0.107468
Ar 7.083838 0.193523 4.348622
Ar 1.699840 5.063241 4.024415
Ar 7.135553 3.922813 9.914189
Ar 0.703508 2.413231 3.239791
Ar 7.066920 2.836856 3.967981
Ar 4.613272 1.495908 3.869646
10
Lattice="10.0 0 0 0 10.0 0 0 0 10.0" Properties=species:S:1:pos:R:3 pbc="T T T" Time=836
Ar 2.891406 6.014679 5.204873
Ar 2.016398 6.982862 8.317681
Ar 7.119856 5.284403 7.805931
Ar 1.305006 8.773946 1.614699
Ar 2.861971 0.168771 3.682467
Ar 7.634947 8.253416 6.208821
Ar 3.732205 6.250046 2.419770
Ar 6.212875 1.394993 2.827950
Ar 6.010670 4.987258 3.043083
Ar 1.498972 1.080002 4.668817
10
Lattice="10.0 0 0 0 10.0 0 0 0 10.0" Properties=species:S:1:pos:R:3 pbc="T T T" Time=837
Ar 8.587330 9.512773 9.685196
Ar 3.231305 4.275900 8.054594
Ar 2.077524 3.791517 8.633402
Ar 9.855188 3.317531 3.121930
Ar 8.640105 0.144015 3.016314
Ar 3.570054 1.443593 8.393227
Ar 0.328855 8.577342 4.925316
Ar 1.722241 0.376754 2.416108
Ar 4.954421 7.137663 2.118185
Ar 8.384670 0.664096 5.467987
10
Lattice="10.0 0 0 0 10.0 0 0 0 10.0" Properties=species:S:1:pos:R:3 pbc="T T T" Time=838
Ar 4.283253 3.010866 4.165520
Ar 4.446212 1.568937 7.791508
Ar 7.035192 2.298630 9.460874
Ar 8.405368 7.861116 4.629161
Ar 4.418257 0.119249 2.350149
Ar 9.505161 4.633770 0.577633
Ar 6.925503 0.904639 7.430859
Ar 7.231608 9.358515 2.004266
Ar 3.898174 9.288068 1.193288
Ar 5.270350 0.248202 6.267170
10
Lattice="10.0 0 0 0 10.0 0 0 0 10.0" Properties=species:S:1:pos:R:3 pbc="T T T" Time=839
Ar 9.979175 6.508960 8.645844
Ar 5.661269 8.862040 7.528345
Ar 1.992708 0.805682 0.288420
Ar 6.955549 2.404702 6.136391
Ar 0.196408 0.094482 1.683980
Ar 5.440269 7.823944 2.762039
Ar 3.522152 3.231934 9.936404
Ar 2.740976 8.340276 1.592424
Ar 2.841927 1.438472 0.268390
Ar 2.156028 9.832309 7.066357
10
Lattice="10.0 0 0 0 10.0 0 0 0 10.0" Properties=species:S:1:pos:R:3 pbc="T T T" Time=840
Ar 5.675098 0.007054 3.126168
Ar 6.876319 6.155149 7.265190
Ar 6.950225 9.312737 1.115971
Ar 5.505730 6.948287 7.643622
Ar 5.974594 0.069775 1.017893
Ar 1.375377 1.014118 4.946445
Ar 0.118813 5.559229 2.441951
Ar 8.250346 7.322037 1.180582
Ar 1.785642 3.588816 9.343410
Ar 9.041702 9.416406 7.865531
10
Lattice="10.0 0 0 0 10.0 0 0 0 10.0" Properties=species:S:1:pos:R:3 pbc="T T T" Time=841
Ar 1.371021 3.505147 7.606492
Ar 8.091369 3.448257 7.002035
Ar 1.908280 7.820192 1.943506
Ar 4.055911 1.491873 9.150853
Ar 1.752776 0.045066 0.351811
Ar 7.310487 4.204291 7.130851
Ar 6.715483 7.886546 4.947494
Ar 3.759716 6.303795 0.768740
Ar 0.728815 5.738743 8.418446
Ar 5.927374 9.000503 8.664704
10
Lattice="10.0 0 0 0 10.0 0 0 0 10.0" Properties=species:S:1:pos:R:3 pbc="T T T" Time=842
Ar 7.066940 7.003242 2.086830
Ar 9.306478 0.741331 6.738864
Ar 6.866523 6.327504 2.771056
Ar 2.606032 6.035492 0.658100
Ar 7.530770 0.020505 9.685698
Ar 3.245596 7.394465 9.315257
Ar 3.312154 0.213862 7.453037
Ar 9.269088 5.285550 0.356897
Ar 9.671988 7.888670 7.493482
Ar 2.813048 8.584600 9.463877
10
Lattice="10.0 0 0 0 10.0 0 0 0 10.0" Properties=species:S:1:pos:R:3 pbc="T T T" Time=843
Ar 2.762860 0.501333 6.567167
Ar 0.521438 8.034549 6.475717
Ar 1.824764 4.834816 3.598609
Ar 1.156154 0.579113 2.165346
Ar 3.308763 9.995944 9.019584
Ar 9.180854 0.584495 1.499639
Ar 9.908825 2.541177 9.958581
Ar 4.778461 4.267303 9.945054
Ar 8.615160 0.038600 6.568519
Ar 9.698721 8.168697 0.263050
10
Lattice="10.0 0 0 0 10.0 0 0 0 10.0" Properties=species:S:1:pos:R:3 pbc="T T T" Time=844
Ar 8.458100 3.997131 1.049827
Ar 1.736398 5.327768 6.212569
Ar 6.783685 3.344421 4.423840
Ar 9.706271 5.122721 3.672605
Ar 9.086757 9.971384 8.353470
Ar 5.116197 3.774317 3.683982
Ar 6.505497 4.868495 2.464122
Ar 0.287835 3.249056 9.533210
Ar 7.558332 2.188530 5.643556
Ar 6.584315 7.753012 1.062251
10
Lattice="10.0 0 0 0 10.0 0 0 0 10.0" Properties=species:S:1:pos:R:3 pbc="T T T" Time=845
Ar 4.153340 7.492930 5.532483
Ar 2.951359 2.620986 5.949421
Ar 1.742606 1.854026 5.249071
Ar 8.256401 9.666328 5.179870
Ar 4.864751 9.946823 7.687360
Ar 1.051526 6.964139 5.868324
Ar 3.102169 7.195816 4.969662
Ar 5.797209 2.230808 9.121367
Ar 6.501503 4.338461 4.718593
Ar 3.469910 7.337325 1.861452
10
Lattice="10.0 0 0 0 10.0 0 0 0 10.0" Properties=species:S:1:pos:R:3 pbc="T T T" Time=846
Ar 9.848579 0.988728 0.015140
Ar 4.166321 9.914203 5.686273
Ar 6.701539 0.363641 6.074296
Ar 6.806532 4.209936 6.687134
Ar 0.642745 9.922262 7.021249
Ar 6.986822 0.153962 8.052661
Ar 9.698844 9.523146 7.475193
Ar 1.306586 1.212559 8.709521
Ar 5.444686 6.488372 3.793651
Ar 0.355504 6.921638 2.660652
10
Lattice="10.0 0 0 0 10.0 0 0 0 10.0" Properties=species:S:1:pos:R:3 pbc="T T T" Time=847
Ar 5.544022 4.484584 4.497904
Ar 5.381343 7.207460 5.423161
Ar 1.660411 8.873218 6.899486
Ar 5.356663 8.753545 8.194398
Ar 6.420739 9.897700 6.355139
Ar 2.922110 3.343784 0.237000
Ar 6.295324 1.850418 9.980613
Ar 6.815964 0.194312 8.297675
Ar 4.387870 8.638283 2.868708
Ar 7.241098 6.505952 3.459852
10
Lattice="10.0 0 0 0 10.0 0 0 0 10.0" Properties=species:S:1:pos:R:3 pbc="T T T" Time=848
Ar 1.239450 7.980439 8.980685
Ar 6.596362 4.500715 5.160048
Ar 6.619283 7.382797 7.724659
Ar 3.906793 3.297153 9.701663
Ar 2.198722 9.873129 5.689025
Ar 8.857399 6.533604 2.421358
Ar 2.891812 4.177692 2.486027
Ar 2.325361 9.176074 7.885825
Ar 3.331054 0.788195 1.943765
Ar 4.126692 6.090266 4.259051
10
Lattice="10.0 0 0 0 10.0 0 0 0 10.0" Properties=species:S:1:pos:R:3 pbc="T T T" Time=849
Ar 6.934878 1.476291 3.463465
Ar 7.811380 1.793971 4.896936
Ar 1.578154 5.892376 8.549832
Ar 2.456911 7.840748 1.208931
Ar 7.976705 9.848559 5.022890
Ar 4.792687 9.723424 4.605716
Ar 9.488299 6.504968 4.991445
Ar 7.834773 8.157846 7.473989
Ar 2.274237 2.938107 1.018821
Ar 1.012288 5.674580 5.058248
10
Lattice="10.0 0 0 0 10.0 0 0 0 10.0" Properties=species:S:1:pos:R:3 pbc="T T T" Time=850
Ar 2.630293 4.972130 7.946257
Ar 9.026399 9.087227 4.633825
Ar 6.537026 4.401955 9.375005
Ar 1.007030 2.384344 2.716198
Ar 3.754688 9.823991 4.356748
Ar 0.727976 2.913245 6.790073
Ar 6.084785 8.832245 7.496862
Ar 3.344197 7.139629 7.062148
Ar 1.217420 5.088018 0.093877
Ar 7.897885 5.258895 5.857446
10
Lattice="10.0 0 0 0 10.0 0 0 0 10.0" Properties=species:S:1:pos:R:3 pbc="T T T" Time=851
Ar 8.325681 8.467963 2.429003
Ar 0.241443 6.380512 4.370756
Ar 1.495898 2.911534 0.200178
Ar 9.557148 6.927940 4.223465
Ar 9.532674 9.799400 3.690610
Ar 6.663262 6.103064 8.974431
Ar 2.681230 1.159543 0.002278
Ar 8.853621 6.121411 6.650308
Ar 0.160603 7.237929 9.168934
Ar 4.783522 4.843188 6.656646
10
Lattice="10.0 0 0 0 10.0 0 0 0 10.0" Properties=species:S:1:pos:R:3 pbc="T T T" Time=852
Ar 4.021071 1.963792 6.911748
Ar 1.456487 3.673798 4.107686
Ar 6.454769 1.421113 1.025351
Ar 8.107266 1.471536 5.730733
Ar 5.310661 9.774809 3.024472
Ar 2.598549 9.292883 1.158789
Ar 9.277676 3.486842 2.507693
Ar 4.363046 5.103197 6.238466
Ar 9.103785 9.387840 8.243993
Ar 1.669159 4.427482 7.455845
10
Lattice="10.0 0 0 0 10.0 0 0 0 10.0" Properties=species:S:1:pos:R:3 pbc="T T T" Time=853
Ar 9.716453 5.459617 1.394486
Ar 2.658597 0.977432 3.841831
Ar 1.413634 9.930702 1.850525
Ar 6.670322 6.004781 7.240784
Ar 1.088652 9.750226 2.358339
Ar 8.533835 2.482702 3.343147
Ar 5.874128 5.814131 5.013108
Ar 9.872469 4.084982 5.826627
Ar 8.046967 1.537752 7.319053
Ar 8.554796 4.011774 8.255044
10
Lattice="10.0 0 0 0 10.0 0 0 0 10.0" Properties=species:S:1:pos:R:3 pbc="T T T" Time=854
Ar 5.411836 8.955442 5.877225
Ar 3.860708 8.281067 3.575976
Ar 6.372500 8.440292 2.675698
Ar 5.233378 0.538027 8.750835
Ar 6.866644 9.725642 1.692207
Ar 4.469120 5.672521 5.527506
Ar 2.470579 8.141420 7.518521
Ar 5.381893 3.066767 5.414788
Ar 6.990149 3.687664 6.394113
Ar 5.440431 3.596067 9.054243
10
Lattice="10.0 0 0 0 10.0 0 0 0 10.0" Properties=species:S:1:pos:R:3 pbc="T T T" Time=855
Ar 1.107218 2.451266 0.359963
Ar 5.062823 5.584704 3.310126
Ar 0.342643 6.400802 5.045834
Ar 3.796435 5.071274 0.260890
Ar 3.633354 0.250133 9.481107
Ar 0.404405 8.862339 7.711864
Ar 9.067028 0.468708 0.023929
Ar 0.891319 2.048553 5.002948
Ar 5.933331 5.837573 5.469173
Ar 2.326067 3.180361 9.853446
10
Lattice="10.0 0 0 0 10.0 0 0 0 10.0" Properties=species:S:1:pos:R:3 pbc="T T T" Time=856
Ar 6.802602 5.947091 4.842702
Ar 6.264936 2.888341 3.044275
Ar 4.312772 4.361271 7.416001
Ar 2.359491 9.604520 1.770946
Ar 0.400081 0.774667 7.269976
Ar 6.339689 2.052158 9.896222
Ar 5.663476 2.795997 2.529337
Ar 6.400730 1.030332 4.591097
Ar 4.876529 7.987487 4.544241
Ar 9.211703 2.764656 0.652650
10
Lattice="10.0 0 0 0 10.0 0 0 0 10.0" Properties=species:S:1:pos:R:3 pbc="T T T" Time=857
Ar 2.497896 9.442863 9.325480
Ar 7.467046 0.191978 2.778419
Ar 8.282901 2.321740 9.786168
Ar 0.922550 4.137771 3.281003
Ar 7.166808 1.299199 5.058844
Ar 2.274973 5.241978 2.080579
Ar 2.259923 5.123285 5.034746
Ar 1.910140 0.012111 4.179247
Ar 3.819729 0.137403 3.619315
Ar 6.097426 2.349003 1.451815
10
Lattice="10.0 0 0 0 10.0 0 0 0 10.0" Properties=species:S:1:pos:R:3 pbc="T T T" Time=858
Ar 8.193191 2.938634 3.808258
Ar 8.608998 7.486382 2.461057
Ar 2.253030 0.282208 2.156335
Ar 9.485610 8.671021 4.791059
Ar 3.933536 1.823731 2.847712
Ar 8.210256 8.431796 4.264934
Ar 8.916526 7.459810 7.591658
Ar 7.419552 8.993885 3.767401
Ar 2.762928 2.287319 2.694389
Ar 2.983151 1.933349 2.250980
10
Lattice="10.0 0 0 0 10.0 0 0 0 10.0" Properties=species:S:1:pos:R:3 pbc="T T T" Time=859
Ar 3.888486 6.434405 8.291035
Ar 9.750951 4.780783 2.143693
Ar 6.223161 8.242677 4.526500
Ar 8.048658 3.204263 6.301119
Ar 0.700263 2.348265 0.636583
Ar 4.145548 1.621620 6.449281
Ar 5.573132 9.796338 0.148576
Ar 2.928946 7.975657 3.355561
Ar 1.706145 4.437236 1.769458
Ar 9.868873 1.517697 3.050146
10
Lattice="10.0 0 0 0 10.0 0 0 0 10.0" Properties=species:S:1:pos:R:3 pbc="T T T" Time=860
Ar 9.583781 9.930176 2.773813
Ar 0.892910 2.075173 1.826311
Ar 0.193270 6.203099 6.896659
Ar 6.611865 7.737534 7.811245
Ar 7.467236 2.872714 8.425499
Ar 0.080503 4.811552 8.633463
Ar 2.229738 2.132865 2.705494
Ar 8.438512 6.957306 2.943835
Ar 1.726084 4.856258 8.676130
Ar 5.677648 2.833073 6.017670
10
Lattice="10.0 0 0 0 10.0 0 0 0 10.0" Properties=species:S:1:pos:R:3 pbc="T T T" Time=861
Ar 5.279076 3.425948 7.256590
Ar 2.034852 9.369567 1.508932
Ar 4.163380 4.163521 9.266818
Ar 5.175073 2.270805 9.321371
Ar 4.234208 3.397159 6.214411
Ar 6.015458 8.001483 0.817645
Ar 8.886344 4.469392 5.262413
Ar 3.948078 5.938955 2.532109
Ar 1.746041 5.275280 5.582799
Ar 1.486423 4.148447 8.985197
10
Lattice="10.0 0 0 0 10.0 0 0 0 10.0" Properties=species:S:1:pos:R:3 pbc="T T T" Time=862
Ar 0.974370 6.921717 1.739369
Ar 3.176730 6.663960 1.191510
Ar 8.133490 2.123949 1.636969
Ar 3.738280 6.804076 0.831497
Ar 1.001180 3.921605 4.003324
Ar 1.950347 1.191408 3.001832
Ar 5.543015 6.805922 7.819374
Ar 9.457644 4.920603 2.120383
Ar 1.766065 5.694302 2.489472
Ar 7.295196 5.463821 1.952723
10
Lattice="10.0 0 0 0 10.0 0 0 0 10.0" Properties=species:S:1:pos:R:3 pbc="T T T" Time=863
Ar 6.669756 0.417491 6.222228
Ar 4.318608 3.958353 0.874088
Ar 2.103594 0.084389 4.007124
Ar 2.301492 1.337334 2.341629
Ar 7.768063 4.446047 1.792147
Ar 7.885237 4.381333 5.186019
Ar 2.199686 9.142452 0.376336
Ar 4.967209 3.902252 1.708658
Ar 1.786090 6.113325 9.396145
Ar 3.103968 6.779196 4.920249
10
Lattice="10.0 0 0 0 10.0 0 0 0 10.0" Properties=species:S:1:pos:R:3 pbc="T T T" Time=864
Ar 2.365104 3.913318 0.705058
Ar 6.008610 1.389513 0.205261
Ar 6.073698 8.044827 6.377279
Ar 0.316596 5.733831 4.203157
Ar 4.534946 4.970486 9.580974
Ar 3.820127 7.571257 7.370206
Ar 8.856357 1.478982 2.933297
Ar 0.476775 2.883895 1.296931
Ar 1.806144 6.532297 6.302853
Ar 8.912730 8.094572 7.887775
10
Lattice="10.0 0 0 0 10.0 0 0 0 10.0" Properties=species:S:1:pos:R:3 pbc="T T T" Time=865
Ar 8.060452 7.409146 5.187887
Ar 7.699030 8.820637 9.536970
Ar 0.043800 6.005258 8.747445
Ar 8.331701 0.130335 6.064675
Ar 1.301831 5.494925 7.369802
Ar 9.755018 0.761181 9.554393
Ar 5.513028 3.815511 5.490257
Ar 5.985923 1.865575 0.884667
Ar 1.826197 6.951269 3.209562
Ar 4.721493 9.409949 0.855300
10
Lattice="10.0 0 0 0 10.0 0 0 0 10.0" Properties=species:S:1:pos:R:3 pbc="T T T" Time=866
Ar 3.755805 0.904976 9.670716
Ar 9.389449 6.251762 8.868679
Ar 4.013905 3.965690 1.117609
Ar 6.346805 4.526839 7.926191
Ar 8.068718 6.019365 5.158628
Ar 5.689908 3.951106 1.738583
Ar 2.169698 6.152040 8.047218
Ar 1.495065 0.847252 0.472404
Ar 1.846249 7.370240 0.116270
Ar 0.530257 0.725325 3.822826
10
Lattice="10.0 0 0 0 10.0 0 0 0 10.0" Properties=species:S:1:pos:R:3 pbc="T T T" Time=867
Ar 9.451158 4.400805 4.153544
Ar 1.079868 3.682884 8.200389
Ar 7.983996 1.926127 3.487790
Ar 4.361909 8.923344 9.787707
Ar 4.835620 6.543798 2.947438
Ar 1.624799 7.141033 3.922773
Ar 8.826367 8.488568 0.604180
Ar 7.004207 9.828931 0.060141
Ar 1.866301 7.789210 7.022978
Ar 6.339018 2.040700 6.790353
10
Lattice="10.0 0 0 0 10.0 0 0 0 10.0" Properties=species:S:1:pos:R:3 pbc="T T T" Time=868
Ar 5.146515 7.896633 8.636370
Ar 2.770285 1.114007 7.532098
Ar 1.954051 9.886565 5.857957
Ar 2.377013 3.319850 1.649223
Ar 1.602522 7.068232 0.736248
Ar 7.559726 0.330959 6.106977
Ar 5.483039 0.825094 3.161137
Ar 2.513345 8.810609 9.647879
Ar 1.886353 8.208183 3.929691
Ar 2.147780 3.356075 9.757880
10
Lattice="10.0 0 0 0 10.0 0 0 0 10.0" Properties=species:S:1:pos:R:3 pbc="T T T" Time=869
Ar 0.841873 1.392463 3.119196
Ar 4.460702 8.545129 6.863808
Ar 5.924105 7.847003 8.228124
Ar 0.392115 7.716354 3.510739
Ar 8.369424 7.592666 8.525058
Ar 3.494654 3.520885 8.291180
Ar 2.139716 3.161616 5.718095
Ar 8.022479 7.792292 9.235617
Ar 1.906405 8.627156 0.836405
Ar 7.956542 4.671450 2.725406
10
Lattice="10.0 0 0 0 10.0 0 0 0 10.0" Properties=species:S:1:pos:R:3 pbc="T T T" Time=870
Ar 6.537232 4.888292 7.602022
Ar 6.151122 5.976257 6.195523
Ar 9.894156 5.807437 0.598287
Ar 8.407220 2.112859 5.372280
Ar 5.136323 8.117094 6.313872
Ar 9.429581 6.710811 0.475383
Ar 8.796392 5.498138 8.275053
Ar 3.531615 6.773981 8.823351
Ar 1.926457 9.046128 7.743116
Ar 3.765300 5.986826 5.692909
10
Lattice="10.0 0 0 0 10.0 0 0 0 10.0" Properties=species:S:1:pos:R:3 pbc="T T T" Time=871
Ar 2.232592 8.384121 2.084848
Ar 7.841533 3.407388 5.527230
Ar 3.864205 3.767868 2.968454
Ar 6.422325 6.509363 7.233822
Ar 1.878559 8.655714 4.153205
Ar 5.364509 9.900738 2.659588
Ar 5.453068 7.834660 0.832011
Ar 9.065424 5.741477 8.360569
Ar 1.946509 9.465099 4.649827
Ar 9.574059 7.302201 8.660411
10
Lattice="10.0 0 0 0 10.0 0 0 0 10.0" Properties=species:S:1:pos:R:3 pbc="T T T" Time=872
Ar 7.927954 1.879928 6.567699
Ar 9.531944 0.838535 4.858910
Ar 7.833567 1.729639 5.338442
Ar 4.437430 0.905866 9.095363
Ar 8.620794 9.194341 1.992538
Ar 1.300127 3.089326 4.843977
Ar 2.109747 0.171182 3.388965
Ar 4.599233 4.708972 7.897788
Ar 1.966561 9.884071 1.556538
Ar 5.382811 8.617574 1.627911
10
Lattice="10.0 0 0 0 10.0 0 0 0 10.0" Properties=species:S:1:pos:R:3 pbc="T T T" Time=873
Ar 3.623318 5.375732 1.050537
Ar 1.222355 8.269682 4.190591
Ar 1.802929 9.691411 7.708430
Ar 2.452533 5.302370 0.956904
Ar 5.363435 9.737825 9.834862
Ar 7.235745 6.277916 7.028368
Ar 8.766426 2.507702 5.945917
Ar 0.133025 3.676411 7.434997
Ar 1.986205 0.298190 8.460272
Ar 1.191581 9.933004 4.595421
10
Lattice="10.0 0 0 0 10.0 0 0 0 10.0" Properties=species:S:1:pos:R:3 pbc="T T T" Time=874
Ar 9.318698 8.871567 5.533613
Ar 2.912784 5.700817 3.522265
Ar 5.772256 7.653161 0.078186
Ar 0.467637 9.698875 2.818445
Ar 2.106075 0.281308 7.677185
Ar 3.171364 9.466508 9.212759
Ar 5.423109 4.844226 8.502898
Ar 5.666817 2.643849 6.972206
Ar 2.005846 0.712305 5.363977
Ar 7.000352 1.248434 7.562932
10
Lattice="10.0 0 0 0 10.0 0 0 0 10.0" Properties=species:S:1:pos:R:3 pbc="T T T" Time=875
Ar 5.014267 2.367414 0.016705
Ar 4.603213 3.131903 2.853927
Ar 9.742192 5.616930 2.450443
Ar 8.482552 4.095367 4.679970
Ar 8.848716 0.824790 5.519509
Ar 9.106983 2.655100 1.397150
Ar 2.079788 7.180747 1.059875
Ar 1.200613 1.611291 6.509420
Ar 2.024878 1.124402 2.265182
Ar 2.809122 2.563912 0.530454
10
Lattice="10.0 0 0 0 10.0 0 0 0 10.0" Properties=species:S:1:pos:R:3 pbc="T T T" Time=876
Ar 0.709835 5.863260 4.499798
Ar 6.293642 0.562989 2.185590
Ar 3.712128 3.580698 4.822700
Ar 6.497467 8.491859 6.541494
Ar 5.591349 1.368279 3.361826
Ar 5.042610 5.843686 3.581552
Ar 8.736466 9.517270 3.616853
Ar 6.734397 0.578743 6.046626
Ar 2.043911 1.536501 9.166382
Ar 8.617903 3.879380 3.497981
10
Lattice="10.0 0 0 0 10.0 0 0 0 10.0" Properties=species:S:1:pos:R:3 pbc="T T T" Time=877
Ar 6.405410 9.359105 8.982888
Ar 7.984072 7.994076 1.517254
Ar 7.682065 1.544468 7.194956
Ar 4.512381 2.888352 8.403019
Ar 2.333980 1.911766 1.204143
Ar 0.978236 9.032271 5.765954
Ar 5.393145 1.853793 6.173831
Ar 2.268184 9.546195 5.583834
Ar 2.062942 1.948596 6.067586
Ar 4.426678 5.194851 6.465505
10
Lattice="10.0 0 0 0 10.0 0 0 0 10.0" Properties=species:S:1:pos:R:3 pbc="T T T" Time=878
Ar 2.100986 2.854950 3.465978
Ar 9.674537 5.425121 0.848857
Ar 1.652001 9.508236 9.567214
Ar 2.527294 7.284834 0.264547
Ar 9.076574 2.455294 9.046519
Ar 6.913863 2.220858 7.950356
Ar 2.049825 4.190315 8.730809
Ar 7.801972 8.513658 5.121041
Ar 2.081972 2.360691 2.968790
Ar 0.235453 6.510321 9.433029
10
Lattice="10.0 0 0 0 10.0 0 0 0 10.0" Properties=species:S:1:pos:R:3 pbc="T T T" Time=879
Ar 7.796562 6.350795 7.949068
Ar 1.365003 2.856166 0.180460
Ar 5.621940 7.472005 1.939472
Ar 0.542206 1.681316 2.126078
Ar 5.819168 2.998823 6.888896
Ar 2.849336 5.409382 0.134779
Ar 8.706504 6.526836 1.287782
Ar 3.335914 7.481178 4.658225
Ar 2.101002 2.772791 9.869994
Ar 6.044228 7.825793 2.400552
10
Lattice="10.0 0 0 0 10.0 0 0 0 10.0" Properties=species:S:1:pos:R:3 pbc="T T T" Time=880
Ar 3.479811 9.526210 2.109829
Ar 3.055459 0.287195 9.512085
Ar 9.591879 5.435778 4.311730
Ar 8.557123 6.077797 3.987612
Ar 2.561765 3.542351 4.731274
Ar 8.784805 8.597906 2.319200
Ar 5.363184 8.863357 3.844755
Ar 8.869856 6.448697 4.195409
Ar 2.132359 3.505321 7.093528
Ar 1.853007 9.141280 5.368052
10
Lattice="10.0 0 0 0 10.0 0 0 0 10.0" Properties=species:S:1:pos:R:3 pbc="T T T" Time=881
Ar 9.163059 2.701625 6.270590
Ar 4.811752 7.710767 8.815935
Ar 3.755401 3.561734 6.895354
Ar 6.572038 0.474275 5.849150
Ar 9.304363 4.085879 2.573652
Ar 4.720275 1.786433 4.503621
Ar 2.019865 1.199877 6.401728
Ar 4.403797 5.416217 3.732594
Ar 2.097881 4.245307 4.344832
Ar 7.468202 0.294586 8.124185
10
Lattice="10.0 0 0 0 10.0 0 0 0 10.0" Properties=species:S:1:pos:R:3 pbc="T T T" Time=882
Ar 4.846307 5.877041 0.431351
Ar 6.568044 5.134340 8.119784
Ar 7.919257 1.687374 9.479062
Ar 5.999521 8.406374 5.293930
Ar 6.046961 4.629408 0.416025
Ar 0.655744 4.974961 6.688040
Ar 8.676548 3.536397 8.958703
Ar 8.524836 0.848429 5.686455
Ar 2.063402 4.985294 1.596140
Ar 3.083397 1.447892 0.880319
10
Lattice="10.0 0 0 0 10.0 0 0 0 10.0" Properties=species:S:1:pos:R:3 pbc="T T T" Time=883
Ar 0.529554 9.052456 4.592112
Ar 8.324336 2.557913 7.423632
Ar 2.083114 9.813015 2.062771
Ar 5.427005 6.338471 4.738708
Ar 2.789559 5.172936 8.258398
Ar 6.591213 8.163491 8.872457
Ar 5.333231 5.872915 1.515677
Ar 2.645877 6.280642 7.640314
Ar 2.028920 5.725279 8.847449
Ar 8.698594 2.601197 3.636457
10
Lattice="10.0 0 0 0 10.0 0 0 0 10.0" Properties=species:S:1:pos:R:3 pbc="T T T" Time=884
Ar 6.212768 2.227907 8.752874
Ar 0.080628 9.981487 6.727474
Ar 6.246965 7.938643 4.646485
Ar 4.854488 4.270568 4.183485
Ar 9.532189 5.716430 6.100775
Ar 2.526682 1.352020 1.056874
Ar 1.989920 8.209444 4.072649
Ar 6.766918 1.712856 9.594174
Ar 1.994438 6.465265 6.098758
Ar 4.313790 3.754502 6.392596
10
Lattice="10.0 0 0 0 10.0 0 0 0 10.0" Properties=species:S:1:pos:R:3 pbc="T T T" Time=885
Ar 1.895982 5.403358 2.913637
Ar 1.836921 7.405062 6.031317
Ar 0.410817 6.064271 7.230197
Ar 4.281971 2.202665 3.628263
Ar 6.274787 6.259762 3.943311
Ar 8.462152 4.540550 3.241291
Ar 8.646609 0.545974 6.629621
Ar 0.887989 7.145323 1.547811
Ar 1.959958 7.205159 3.350131
Ar 9.928987 4.907806 9.148734
10
Lattice="10.0 0 0 0 10.0 0 0 0 10.0" Properties=species:S:1:pos:R:3 pbc="T T T" Time=886
Ar 7.579172 8.578830 7.074365
Ar 3.593213 4.828636 5.335159
Ar 4.574669 4.189899 9.813910
Ar 3.709456 0.134763 3.073035
Ar 3.017381 6.803094 1.785847
Ar 4.397621 7.729080 5.425707
Ar 5.303299 2.882505 9.186590
Ar 5.009082 2.577768 3.501484
Ar 1.925481 7.945052 0.601506
Ar 5.544182 6.061110 1.904877
10
Lattice="10.0 0 0 0 10.0 0 0 0 10.0" Properties=species:S:1:pos:R:3 pbc="T T T" Time=887
Ar 3.262364 1.754269 1.235088
Ar 5.349509 2.252216 4.639001
Ar 8.738518 2.315526 2.397621
Ar 3.136941 8.066862 2.517807
Ar 9.759975 7.346427 9.628383
Ar 0.333091 0.917609 7.610123
Ar 1.959988 5.219036 1.743560
Ar 9.130167 8.010216 5.455143
Ar 1.891012 8.684974 7.852897
Ar 1.159375 7.214409 4.661026
10
Lattice="10.0 0 0 0 10.0 0 0 0 10.0" Properties=species:S:1:pos:R:3 pbc="T T T" Time=888
Ar 8.945557 4.929708 5.395812
Ar 7.105805 9.675794 3.942843
Ar 2.902335 0.441211 4.981358
Ar 2.564425 5.998959 1.962579
Ar 6.502577 7.889749 7.470930
Ar 6.268561 4.106138 9.794540
Ar 8.616710 7.555509 4.300501
Ar 3.251254 3.442665 7.408802
Ar 1.856532 9.424908 5.104276
Ar 6.774572 8.367709 7.417176
10
Lattice="10.0 0 0 0 10.0 0 0 0 10.0" Properties=species:S:1:pos:R:3 pbc="T T T" Time=889
Ar 4.628749 8.105147 9.556535
Ar 8.862101 7.099373 3.246685
Ar 7.066151 8.566896 7.565095
Ar 1.991910 3.931057 1.407350
Ar 3.245177 8.433071 5.313478
Ar 2.204030 7.294670 1.978956
Ar 5.273432 9.891981 6.857443
Ar 7.372334 8.875117 9.362463
Ar 1.822054 0.164841 2.355655
Ar 2.389773 9.521006 0.173324
10
Lattice="10.0 0 0 0 10.0 0 0 0 10.0" Properties=species:S:1:pos:R:3 pbc="T T T" Time=890
Ar 0.311942 1.280585 3.717259
Ar 0.618395 4.522954 2.550526
Ar 1.230063 6.692673 0.148821
Ar 1.419396 1.863155 0.852121
Ar 5.191624 8.120776 2.127597
Ar 8.139499 0.483201 4.163373
Ar 1.930155 2.228452 9.414383
Ar 1.493414 4.307568 1.316124
Ar 1.787481 0.904682 9.607045
Ar 2.801129 1.529920 3.957903
10
Lattice="10.0 0 0 0 10.0 0 0 0 10.0" Properties=species:S:1:pos:R:3 pbc="T T T" Time=891
Ar 5.995134 4.456021 7.877983
Ar 2.374689 1.946535 1.854368
Ar 5.393975 4.818441 2.732518
Ar 0.846881 9.795253 0.296892
Ar 7.138069 7.808480 8.941715
Ar 4.074968 3.671731 6.347790
Ar 8.586875 4.564928 1.971322
Ar 5.614501 9.740025 3.269816
Ar 1.752906 1.644525 6.858440
Ar 3.212485 3.538835 7.742476
10
Lattice="10.0 0 0 0 10.0 0 0 0 10.0" Properties=species:S:1:pos:R:3 pbc="T T T" Time=892
Ar 1.678328 7.631457 2.038706
Ar 4.130923 9.370131 1.158294
Ar 9.557886 2.944212 5.316214
Ar 0.274320 7.727370 9.741800
Ar 9.084515 7.496184 5.755832
Ar 0.010432 6.860258 8.532209
Ar 5.243644 6.901619 4.528149
Ar 9.735648 5.172470 5.223426
Ar 1.718327 2.384128 4.109807
Ar 3.623844 5.547749 1.527050
10
Lattice="10.0 0 0 0 10.0 0 0 0 10.0" Properties=species:S:1:pos:R:3 pbc="T T T" Time=893
Ar 7.361525 0.806895 6.199432
Ar 5.887158 6.793728 0.462220
Ar 3.721797 1.069984 7.899910
Ar 9.701759 5.659486 9.186707
Ar 1.030960 7.183889 2.569950
Ar 5.945928 0.048790 0.716570
Ar 1.900414 9.238310 7.084977
Ar 3.856794 0.604916 7.177036
Ar 1.683745 3.123728 1.361172
Ar 4.035170 7.556661 5.311681
10
Lattice="10.0 0 0 0 10.0 0 0 0 10.0" Properties=species:S:1:pos:R:3 pbc="T T T" Time=894
Ar 3.044722 3.982334 0.360160
Ar 7.643393 4.217326 9.766146
Ar 7.885705 9.195747 0.483608
Ar 9.129216 3.591666 8.631701
Ar 2.977404 6.871597 9.384068
Ar 1.881406 3.237258 2.900843
Ar 8.557185 1.575002 9.641804
Ar 7.977943 6.037366 9.130645
Ar 1.649167 3.863327 8.612535
Ar 4.446497 9.565571 9.096312
10
Lattice="10.0 0 0 0 10.0 0 0 0 10.0" Properties=species:S:1:pos:R:3 pbc="T T T" Time=895
Ar 8.727920 7.157772 4.520887
Ar 9.399628 1.640923 9.070073
Ar 2.053173 7.309248 3.048244
Ar 8.556673 1.523847 8.076695
Ar 4.923848 6.559306 6.198186
Ar 7.816883 6.425727 5.085116
Ar 5.213948 3.911689 2.198632
Ar 2.095535 1.482083 1.103317
Ar 1.614589 4.602926 5.863899
Ar 4.857824 1.574481 2.880942
10
Lattice="10.0 0 0 0 10.0 0 0 0 10.0" Properties=species:S:1:pos:R:3 pbc="T T T" Time=896
Ar 4.411123 0.333211 8.681621
Ar 1.155844 9.064508 8.374017
Ar 6.220641 5.422747 5.612881
Ar 7.984144 9.456024 7.521674
Ar 6.870292 6.247016 3.012303
Ar 3.752361 9.614196 7.269391
Ar 1.870712 6.248372 4.755460
Ar 6.213130 6.926821 3.075982
Ar 1.580009 5.342524 3.115256
Ar 5.269151 3.583391 6.665572
10
Lattice="10.0 0 0 0 10.0 0 0 0 10.0" Properties=species:S:1:pos:R:3 pbc="T T T" Time=897
Ar 0.094484 3.508776 2.842256
Ar 2.912201 6.488113 7.678129
Ar 0.388110 3.536245 8.177518
Ar 7.411472 7.388181 6.966487
Ar 8.816735 5.934725 9.826421
Ar 9.687681 2.802538 9.453764
Ar 8.527476 8.585058 7.312288
Ar 0.330725 2.371560 5.048647
Ar 1.545429 6.082122 0.366613
Ar 5.680478 5.592297 0.450204
10
Lattice="10.0 0 0 0 10.0 0 0 0 10.0" Properties=species:S:1:pos:R:3 pbc="T T T" Time=898
Ar 5.777864 6.684363 7.002934
Ar 4.668557 3.911718 6.982241
Ar 4.555580 1.649748 0.742154
Ar 6.838801 5.320339 6.411298
Ar 0.758908 5.626854 6.640952
Ar 5.622982 5.990858 1.638094
Ar 5.184244 0.921757 9.869138
Ar 4.452591 7.811881 7.020897
Ar 1.510845 6.821708 7.617947
Ar 6.091803 7.601198 4.234838
10
Lattice="10.0 0 0 0 10.0 0 0 0 10.0" Properties=species:S:1:pos:R:3 pbc="T T T" Time=899
Ar 1.461245 9.859951 1.163608
Ar 6.424914 1.335323 6.286352
Ar 8.723081 9.763282 3.306736
Ar 6.266090 3.252454 5.856098
Ar 2.701079 5.318982 3.455482
Ar 1.558254 9.179147 3.822479
Ar 1.841052 3.258499 2.426000
Ar 8.574458 3.252200 8.993150
Ar 1.476263 7.561294 4.869283
Ar 6.503127 9.610099 8.019473
10
Lattice="10.0 0 0 0 10.0 0 0 0 10.0" Properties=species:S:1:pos:R:3 pbc="T T T" Time=900
Ar 7.144641 3.035535 5.324294
Ar 8.181268 8.758925 5.590464
Ar 2.890473 7.876941 5.871469
Ar 5.693401 1.184545 5.300886
Ar 4.643228 5.011076 0.269984
Ar 7.493526 2.367435 6.006863
Ar 8.497968 5.595115 4.982712
Ar 2.696289 8.692549 0.965404
Ar 1.441702 8.300915 2.120648
Ar 6.914451 1.619002 1.804106
10
Lattice="10.0 0 0 0 10.0 0 0 0 10.0" Properties=species:S:1:pos:R:3 pbc="T T T" Time=901
Ar 2.828037 6.211120 9.484977
Ar 9.937623 6.182511 4.894577
Ar 7.057864 5.990601 8.436201
Ar 5.120710 9.116655 4.745670
Ar 6.585379 4.703173 7.084487
Ar 3.428800 5.555742 8.191237
Ar 5.154883 7.931727 7.539422
Ar 6.818121 4.132899 2.937658
Ar 1.407139 9.040517 9.372026
Ar 7.325776 3.627901 5.588743
10
Lattice="10.0 0 0 0 10.0 0 0 0 10.0" Properties=species:S:1:pos:R:3 pbc="T T T" Time=902
Ar 8.512029 9.385573 3.646821
Ar 1.693979 3.606097 4.198690
Ar 1.225255 4.104260 1.000934
Ar 4.548009 7.048757 4.190451
Ar 8.527530 4.395269 3.898990
Ar 9.363487 8.745188 0.374454
Ar 1.811799 0.268341 0.096131
Ar 0.939984 9.573259 4.909883
Ar 1.372545 9.780110 6.623433
Ar 7.737101 5.636799 9.373379
10
Lattice="10.0 0 0 0 10.0 0 0 0 10.0" Properties=species:S:1:pos:R:3 pbc="T T T" Time=903
Ar 4.195987 2.560062 7.808738
Ar 3.450335 1.029683 3.502803
Ar 5.392652 2.217934 3.565683
Ar 3.975307 4.980859 3.635232
Ar 0.469669 4.087360 0.713491
Ar 5.298206 1.934596 2.557598
Ar 8.468715 2.604956 2.652840
Ar 5.061847 5.013619 6.882106
Ar 1.337950 0.519703 3.874840
Ar 8.148433 7.645687 3.158002
10
Lattice="10.0 0 0 0 10.0 0 0 0 10.0" Properties=species:S:1:pos:R:3 pbc="T T T" Time=904
Ar 9.879944 5.734551 1.970654
Ar 5.206692 8.453269 2.806916
Ar 9.560050 0.331609 6.130432
Ar 3.402606 2.912962 3.080012
Ar 2.411807 3.779450 7.527992
Ar 1.232925 5.124003 4.740742
Ar 5.125631 4.941573 5.209550
Ar 9.183702 0.453974 8.854291
Ar 1.303365 1.259301 1.126285
Ar 8.559765 9.654575 6.942626
10
Lattice="10.0 0 0 0 10.0 0 0 0 10.0" Properties=species:S:1:pos:R:3 pbc="T T T" Time=905
Ar 5.563900 8.909038 6.132571
Ar 6.963045 5.876851 2.111031
Ar 3.727381 8.445068 8.694403
Ar 2.829905 0.845065 2.524792
Ar 4.353946 3.471541 4.342493
Ar 7.167723 8.313632 6.924661
Ar 1.782549 7.278189 7.766260
Ar 3.305558 5.894331 0.826477
Ar 1.268771 1.998896 8.377732
Ar 8.971096 1.663463 0.727249
10
Lattice="10.0 0 0 0 10.0 0 0 0 10.0" Properties=species:S:1:pos:R:3 pbc="T T T" Time=906
Ar 1.247855 2.083525 0.294488
Ar 8.719398 3.300432 1.415146
Ar 7.894807 6.558590 1.258296
Ar 2.257203 8.777169 1.969572
Ar 6.296084 3.163632 1.156994
Ar 3.102520 1.503262 9.108580
Ar 8.439467 9.614805 0.322970
Ar 7.427416 1.334692 2.798673
Ar 1.234177 2.738492 5.629180
Ar 9.382331 3.672282 4.511939
10
Lattice="10.0 0 0 0 10.0 0 0 0 10.0" Properties=species:S:1:pos:R:3 pbc="T T T" Time=907
Ar 6.931788 5.258021 4.456392
Ar 0.475751 0.724013 0.719261
Ar 2.062235 4.672114 3.822190
Ar 1.684502 6.709272 1.414352
Ar 8.238223 2.855723 7.971495
Ar 9.037341 4.692883 1.292511
Ar 5.096381 1.951419 2.879678
Ar 1.549274 6.775053 4.770869
Ar 1.199583 3.478087 2.880626
Ar 9.793565 5.681102 8.296630
10
Lattice="10.0 0 0 0 10.0 0 0 0 10.0" Properties=species:S:1:pos:R:3 pbc="T T T" Time=908
Ar 2.615715 8.432519 8.618300
Ar 2.232109 8.147596 0.023375
Ar 6.229664 2.785639 6.386084
Ar 1.111800 4.641375 0.859132
Ar 0.180356 2.547815 4.785995
Ar 4.972167 7.882502 3.476438
Ar 1.753295 4.288033 5.436385
Ar 5.671131 2.215410 6.743069
Ar 1.164994 4.217680 0.132076
Ar 0.204795 7.689925 2.081319
10
Lattice="10.0 0 0 0 10.0 0 0 0 10.0" Properties=species:S:1:pos:R:3 pbc="T T T" Time=909
Ar 8.299643 1.607017 2.780208
Ar 3.988467 5.571179 9.327489
Ar 0.397115 0.899189 8.950001
Ar 0.539100 2.573479 0.303912
Ar 2.122489 2.239907 1.600494
Ar 0.906992 1.072121 5.660364
Ar 8.410210 6.624647 7.993092
Ar 9.792987 7.655774 8.715271
Ar 1.130384 4.957242 7.383502
Ar 0.616025 9.698748 5.866007
10
Lattice="10.0 0 0 0 10.0 0 0 0 10.0" Properties=species:S:1:pos:R:3 pbc="T T T" Time=910
Ar 3.983603 4.781539 6.942000
Ar 5.744794 2.994739 8.631718
Ar 4.550934 8.998820 1.522631
Ar 9.968680 0.487412 9.717510
Ar 4.064619 1.931995 8.414992
Ar 6.841817 4.261740 7.844291
Ar 5.067127 8.961264 0.549800
Ar 3.928477 3.110055 0.678760
Ar 1.093492 5.714974 4.666109
Ar 1.027255 1.707572 9.650697
10
Lattice="10.0 0 0 0 10.0 0 0 0 10.0" Properties=species:S:1:pos:R:3 pbc="T T T" Time=911
Ar 9.667562 7.956061 1.103791
Ar 7.501121 0.418299 7.935947
Ar 8.704752 7.098444 4.095256
Ar 9.398251 8.401355 9.131106
Ar 6.006760 1.624081 5.229499
Ar 2.776675 7.451510 0.028195
Ar 1.724023 1.297866 3.106498
Ar 8.063986 8.564352 2.642260
Ar 1.056601 6.472706 1.948715
Ar 1.438452 3.716244 3.435408
10
Lattice="10.0 0 0 0 10.0 0 0 0 10.0" Properties=species:S:1:pos:R:3 pbc="T T T" Time=912
Ar 5.351519 1.130584 5.265582
Ar 9.257447 7.841846 7.240191
Ar 2.858637 5.198062 6.667754
Ar 8.827773 6.315243 8.544706
Ar 7.948886 1.316156 2.044001
Ar 8.711552 0.641302 2.212085
Ar 8.380852 3.634472 5.663321
Ar 2.199495 4.018651 4.605766
Ar 1.019710 7.230438 9.231321
Ar 1.849696 5.724971 7.220117
10
Lattice="10.0 0 0 0 10.0 0 0 0 10.0" Properties=species:S:1:pos:R:3 pbc="T T T" Time=913
Ar 1.035477 4.305108 9.427379
Ar 1.013773 5.265395 6.544434
Ar 7.012524 3.297674 9.240261
Ar 8.257294 4.229133 7.958290
Ar 9.891012 1.008230 8.858503
Ar 4.646430 3.831094 4.395975
Ar 5.037681 5.971074 8.220144
Ar 6.334995 9.472958 6.569268
Ar 0.982824 7.988163 6.513931
Ar 2.260940 7.733703 1.004826
10
Lattice="10.0 0 0 0 10.0 0 0 0 10.0" Properties=species:S:1:pos:R:3 pbc="T T T" Time=914
Ar 6.719435 7.479632 3.589176
Ar 2.770101 2.688956 5.848666
Ar 1.166602 1.397188 1.812668
Ar 7.686807 2.143011 7.371883
Ar 1.834067 0.699482 5.673210
Ar 0.580380 7.021708 6.579659
Ar 1.694511 8.307676 0.776967
Ar 0.470495 4.927264 8.532767
Ar 0.945943 8.745890 3.796547
Ar 2.671997 9.742531 4.789637
10
Lattice="10.0 0 0 0 10.0 0 0 0 10.0" Properties=species:S:1:pos:R:3 pbc="T T T" Time=915
Ar 2.403394 0.654156 7.750975
Ar 4.526429 0.112515 5.152897
Ar 5.320669 9.496694 4.385086
Ar 7.116329 0.056897 6.785464
Ar 3.777123 0.390734 2.487916
Ar 6.514329 0.212322 8.763343
Ar 8.351340 0.644278 3.333790
Ar 4.605994 0.381570 0.496265
Ar 0.909061 9.503620 1.079162
Ar 3.083054 1.751359 8.574449
10
Lattice="10.0 0 0 0 10.0 0 0 0 10.0" Properties=species:S:1:pos:R:3 pbc="T T T" Time=916
Ar 8.087353 3.828680 1.912773
Ar 6.282761 7.536083 4.457129
Ar 9.474735 7.596202 6.957503
Ar 6.545852 7.970783 6.199046
Ar 5.720123 0.082038 9.302678
Ar 2.448278 3.402937 0.947027
Ar 5.008169 2.980880 5.890612
Ar 8.741493 5.835874 2.459765
Ar 0.872172 0.261345 8.361772
Ar 3.494170 3.760132 2.359210
10
Lattice="10.0 0 0 0 10.0 0 0 0 10.0" Properties=species:S:1:pos:R:3 pbc="T T T" Time=917
Ar 3.771265 7.003131 6.074517
Ar 8.038944 4.959766 3.761506
Ar 3.628952 5.695592 9.529778
Ar 5.975380 5.884667 5.612615
Ar 7.663118 9.773343 6.117446
Ar 8.382226 6.593553 3.130722
Ar 1.664999 5.317482 8.447433
Ar 2.876996 1.290178 4.423258
Ar 0.835283 1.019069 5.644383
Ar 3.905330 5.768979 6.144024
10
Lattice="10.0 0 0 0 10.0 0 0 0 10.0" Properties=species:S:1:pos:R:3 pbc="T T T" Time=918
Ar 9.455175 0.177572 0.236257
Ar 9.795121 2.383442 3.065849
Ar 7.783169 3.794982 2.102053
Ar 5.404912 3.798561 5.026218
Ar 9.606112 9.464648 2.932215
Ar 4.316152 9.784161 5.314388
Ar 8.321829 7.654084 1.004255
Ar 7.012501 6.744491 6.386753
Ar 0.798394 1.776794 2.926993
Ar 4.316512 7.777834 9.928869
10
Lattice="10.0 0 0 0 10.0 0 0 0 10.0" Properties=species:S:1:pos:R:3 pbc="T T T" Time=919
Ar 5.139056 3.352253 4.397985
Ar 1.551292 9.807081 2.370205
Ar 1.937393 1.894373 4.674333
Ar 4.834458 1.712453 4.439818
Ar 1.549106 9.155953 9.746983
Ar 0.250085 2.974805 7.498039
Ar 4.978652 9.990685 3.561074
Ar 1.148011 2.198805 8.350245
Ar 0.761500 2.534518 0.209607
Ar 4.727709 9.786450 3.713728
10
Lattice="10.0 0 0 0 10.0 0 0 0 10.0" Properties=species:S:1:pos:R:3 pbc="T T T" Time=920
Ar 0.822936 6.526935 8.559710
Ar 3.307298 7.230821 1.674586
Ar 6.091614 9.993766 7.246611
Ar 4.264003 9.626345 3.853419
Ar 3.492099 8.847254 6.561754
Ar 6.184019 6.165449 9.681690
Ar 1.635474 2.327283 6.117893
Ar 5.283521 7.653118 0.313738
Ar 0.724775 3.292144 7.492197
Ar 5.138906 1.795067 7.498588
10
Lattice="10.0 0 0 0 10.0 0 0 0 10.0" Properties=species:S:1:pos:R:3 pbc="T T T" Time=921
Ar 6.506829 9.701677 2.721433
Ar 5.063304 4.654560 0.978968
Ar 0.245834 8.093159 9.818890
Ar 3.693538 7.540212 3.267036
Ar 5.435093 8.538554 3.376523
Ar 2.117869 9.356165 1.865262
Ar 9.385632 3.873813 9.820038
Ar 9.419119 3.107357 2.277286
Ar 0.688046 4.049774 4.774812
Ar 4.456769 4.593717 0.138106
10
Lattice="10.0 0 0 0 10.0 0 0 0 10.0" Properties=species:S:1:pos:R:3 pbc="T T T" Time=922
Ar 2.190721 2.876420 6.883157
Ar 6.819306 2.078299 0.283352
Ar 4.400062 6.192540 2.391167
Ar 3.123073 5.454079 2.680652
Ar 7.378085 8.229853 0.191293
Ar 8.051735 2.546856 4.048823
Ar 7.135801 5.420330 3.522166
Ar 3.554705 8.561621 4.240843
Ar 0.651305 4.807417 2.057444
Ar 3.774626 7.392381 2.777625
10
Lattice="10.0 0 0 0 10.0 0 0 0 10.0" Properties=species:S:1:pos:R:3 pbc="T T T" Time=923
Ar 7.874645 6.051198 1.044860
Ar 8.574669 9.501973 9.586852
Ar 8.554290 4.291920 4.963443
Ar 2.552593 3.367936 2.094268
Ar 9.321060 7.921126 7.006083
Ar 3.985599 5.737548 6.232384
Ar 4.885971 6.966849 7.224290
Ar 7.690290 4.015884 6.204401
Ar 0.614564 5.565060 9.340078
Ar 3.093121 0.191109 5.418030
10
Lattice="10.0 0 0 0 10.0 0 0 0 10.0" Properties=species:S:1:pos:R:3 pbc="T T T" Time=924
Ar 3.558570 9.225976 5.206564
Ar 0.330032 6.925648 8.890351
Ar 2.708686 2.391217 7.535652
Ar 1.982014 1.281723 1.507906
Ar 1.264035 7.612399 3.820873
Ar 9.919465 8.928240 8.415945
Ar 2.636141 8.513368 0.926415
Ar 1.825873 9.470165 8.167981
Ar 0.577820 6.322702 6.622710
Ar 2.411551 2.989975 8.058459
10
Lattice="10.0 0 0 0 10.0 0 0 0 10.0" Properties=species:S:1:pos:R:3 pbc="T T T" Time=925
Ar 9.242494 2.400753 9.368269
Ar 2.085395 4.349323 8.193851
Ar 6.863140 0.490532 0.107780
Ar 1.411435 9.195510 0.921544
Ar 3.207010 7.303671 0.635663
Ar 5.853313 2.118908 0.599488
Ar 0.386328 0.059910 4.628559
Ar 5.961399 4.924427 0.131642
Ar 0.541078 7.080344 3.905342
Ar 1.729981 5.788840 0.698888
10
Lattice="10.0 0 0 0 10.0 0 0 0 10.0" Properties=species:S:1:pos:R:3 pbc="T T T" Time=926
Ar 4.926419 5.575531 3.529973
Ar 3.840759 1.772986 7.497359
Ar 1.006043 8.613122 2.700229
Ar 0.840856 7.109298 0.335183
Ar 5.149985 6.994944 7.450452
Ar 1.787140 5.309584 2.783029
Ar 8.136517 1.606451 8.330703
Ar 0.096942 0.378695 2.095301
Ar 0.504335 7.837984 1.187969
Ar 1.059962 8.564432 3.318995
10
Lattice="10.0 0 0 0 10.0 0 0 0 10.0" Properties=species:S:1:pos:R:3 pbc="T T T" Time=927
Ar 0.610344 8.750310 7.691677
Ar 5.596123 9.196648 6.800866
Ar 5.148956 6.735695 5.292674
Ar 0.270275 5.023089 9.748822
Ar 7.092970 6.686223 4.265240
Ar 7.720957 8.500274 4.966577
Ar 5.886705 3.152992 2.032848
Ar 4.232485 5.832964 4.058958
Ar 0.467593 8.595622 8.470597
Ar 0.389933 1.340015 5.939104
10
Lattice="10.0 0 0 0 10.0 0 0 0 10.0" Properties=species:S:1:pos:R:3 pbc="T T T" Time=928
Ar 6.294271 1.925088 1.853381
Ar 7.351487 6.620311 6.104373
Ar 9.481164 4.687351 0.057291
Ar 9.699745 2.936767 9.162328
Ar 9.035956 6.377503 1.080028
Ar 3.654775 1.690963 7.150124
Ar 3.636893 4.699534 5.734993
Ar 8.368020 1.287251 6.022610
Ar 0.430786 9.353351 5.753312
Ar 9.530632 4.286521 6.387089
10
Lattice="10.0 0 0 0 10.0 0 0 0 10.0" Properties=species:S:1:pos:R:3 pbc="T T T" Time=929
Ar 1.966280 5.086952 6.080112
Ar 9.106850 4.043975 5.407881
Ar 3.813382 2.639026 4.821939
Ar 9.129215 0.850446 8.575834
Ar 0.978945 6.068768 7.894806
Ar 9.588598 4.881666 9.333676
Ar 1.387082 6.246076 9.437137
Ar 2.503534 6.741518 7.986235
Ar 0.405896 0.123993 2.971001
Ar 8.671330 7.233029 6.835074
10
Lattice="10.0 0 0 0 10.0 0 0 0 10.0" Properties=species:S:1:pos:R:3 pbc="T T T" Time=930
Ar 7.638288 8.248816 0.306844
Ar 0.862213 1.467640 4.711390
Ar 8.145602 0.590704 9.586589
Ar 8.558687 8.764106 7.989332
Ar 2.921932 5.760048 4.709593
Ar 5.522422 8.072368 1.517228
Ar 9.137270 7.792618 3.139281
Ar 6.639046 2.195786 9.949860
Ar 0.381008 0.894633 0.188689
Ar 7.812029 0.179537 7.283058
10
Lattice="10.0 0 0 0 10.0 0 0 0 10.0" Properties=species:S:1:pos:R:3 pbc="T T T" Time=931
Ar 3.310301 1.410675 4.533567
Ar 2.617575 8.891304 4.014898
Ar 2.477823 8.542381 4.351238
Ar 7.988159 6.677767 7.402831
Ar 4.864845 5.451300 1.524305
Ar 1.456235 1.263062 3.700785
Ar 6.887469 9.339166 6.841520
Ar 0.774629 7.650087 1.913470
Ar 0.356119 1.665274 7.406378
Ar 6.952726 3.126046 7.731041
10
Lattice="10.0 0 0 0 10.0 0 0 0 10.0" Properties=species:S:1:pos:R:3 pbc="T T T" Time=932
Ar 8.982314 4.572530 8.760292
Ar 4.372937 6.314968 3.318406
Ar 6.810044 6.494059 9.115891
Ar 7.417652 4.591389 6.816341
Ar 6.807759 5.142553 8.339017
Ar 7.390045 4.453756 5.884343
Ar 4.637669 0.885714 0.543760
Ar 4.910207 3.104394 3.877082
Ar 0.331237 2.435916 4.624069
Ar 6.093403 6.072590 8.179000
10
Lattice="10.0 0 0 0 10.0 0 0 0 10.0" Properties=species:S:1:pos:R:3 pbc="T T T" Time=933
Ar 4.654343 7.734390 2.987024
Ar 6.481951 9.654336 5.837676
Ar 0.788614 8.530027 0.664783
Ar 6.847146 2.505009 6.229851
Ar 8.750673 4.833805 5.153730
Ar 3.323838 7.644452 8.067895
Ar 2.387867 2.432264 4.245999
Ar 9.045783 8.558701 5.840692
Ar 0.306356 3.206558 1.841759
Ar 5.234080 9.019135 8.626959
10
Lattice="10.0 0 0 0 10.0 0 0 0 10.0" Properties=species:S:1:pos:R:3 pbc="T T T" Time=934
Ar 0.326384 0.896246 7.213760
Ar 8.590966 2.993706 8.356946
Ar 4.767320 0.566157 2.213901
Ar 6.276460 0.417629 5.636657
Ar 0.693684 4.524837 1.968466
Ar 9.257829 0.836129 0.258099
Ar 0.138066 3.978813 7.948238
Ar 3.181359 4.013007 7.804303
Ar 0.281474 3.977200 9.059450
Ar 4.374495 1.965760 9.074715
10
Lattice="10.0 0 0 0 10.0 0 0 0 10.0" Properties=species:S:1:pos:R:3 pbc="T T T" Time=935
Ar 5.998424 4.058103 1.440497
Ar 0.699979 6.333075 0.876215
Ar 8.746026 2.602287 3.763020
Ar 5.705773 8.330249 5.043463
Ar 2.636695 4.215870 8.783203
Ar 5.191817 4.027804 2.448302
Ar 7.888266 5.525362 1.650478
Ar 7.316937 9.467312 9.767913
Ar 0.256593 4.747842 6.277140
Ar 3.514914 4.912389 9.522473
10
Lattice="10.0 0 0 0 10.0 0 0 0 10.0" Properties=species:S:1:pos:R:3 pbc="T T T" Time=936
Ar 1.670465 7.219958 5.667232
Ar 2.808956 9.672424 3.395485
Ar 2.724732 4.638417 5.312138
Ar 5.135087 6.242868 4.450269
Ar 4.579706 3.906903 5.597941
Ar 1.125804 7.219478 4.638507
Ar 5.638488 7.071926 5.352723
Ar 1.452515 4.921619 1.731522
Ar 0.231720 5.518491 3.494822
Ar 2.655333 7.859015 9.970232
10
Lattice="10.0 0 0 0 10.0 0 0 0 10.0" Properties=species:S:1:pos:R:3 pbc="T T T" Time=937
Ar 7.342645 0.381814 9.893789
Ar 4.917935 3.011774 5.914755
Ar 6.703438 6.674546 6.861257
Ar 4.564400 4.155488 3.857075
Ar 6.522586 3.597831 2.412568
Ar 7.059649 0.411145 6.828890
Ar 3.388714 8.618494 9.054969
Ar 5.588094 0.375927 3.695131
Ar 0.206847 6.289141 0.712504
Ar 1.795884 0.805746 0.418101
10
Lattice="10.0 0 0 0 10.0 0 0 0 10.0" Properties=species:S:1:pos:R:3 pbc="T T T" Time=938
Ar 3.014900 3.543673 4.120491
Ar 7.026913 6.351126 8.434025
Ar 0.682129 8.710678 8.410374
Ar 3.993635 2.067979 3.263735
Ar 8.465481 3.288751 9.227199
Ar 2.993420 3.602820 9.019134
Ar 1.139022 0.165194 2.757359
Ar 9.723677 5.830231 5.658732
Ar 0.181965 7.059785 7.930188
Ar 0.936435 3.752477 0.865969
10
Lattice="10.0 0 0 0 10.0 0 0 0 10.0" Properties=species:S:1:pos:R:3 pbc="T T T" Time=939
Ar 8.687155 6.705532 8.347194
Ar 9.135892 9.690475 0.953300
Ar 4.660819 0.746810 9.959491
Ar 3.422866 9.980473 2.670394
Ar 0.408380 2.979670 6.041827
Ar 8.927192 6.794494 1.209377
Ar 8.889329 1.711893 6.459748
Ar 3.859260 1.284535 7.622334
Ar 0.157083 7.830430 5.147872
Ar 0.076985 6.699209 1.313838
10
Lattice="10.0 0 0 0 10.0 0 0 0 10.0" Properties=species:S:1:pos:R:3 pbc="T T T" Time=940
Ar 4.359400 9.867406 2.573905
Ar 1.244870 3.029824 3.472575
Ar 8.639521 2.782978 1.508618
Ar 2.852108 7.892952 2.077043
Ar 2.351278 2.670588 2.856455
Ar 4.860964 9.986168 3.399620
Ar 6.639636 3.258593 0.162137
Ar 7.994842 6.738838 9.585932
Ar 0.132191 8.601041 2.365548
Ar 9.217534 9.645941 1.761709
10
Lattice="10.0 0 0 0 10.0 0 0 0 10.0" Properties=species:S:1:pos:R:3 pbc="T T T" Time=941
Ar 0.031645 3.029279 6.800615
Ar 3.353848 6.369175 5.991850
Ar 2.618224 4.819145 3.057748
Ar 2.281349 5.805431 1.483694
Ar 4.294188 2.361517 9.671080
Ar 0.794591 3.177853 5.589850
Ar 4.389931 4.805281 3.864530
Ar 2.130424 2.193141 1.549528
Ar 0.107300 9.371652 9.583224
Ar 8.358231 2.592660 2.209593
10
Lattice="10.0 0 0 0 10.0 0 0 0 10.0" Properties=species:S:1:pos:R:3 pbc="T T T" Time=942
Ar 5.705911 6.191634 1.030649
Ar 5.462646 9.708586 8.511226
Ar 6.596930 6.855311 4.606880
Ar 1.710590 3.717906 0.890343
Ar 6.237280 2.052388 6.485603
Ar 6.726199 6.369061 7.776758
Ar 2.140221 6.351971 7.566920
Ar 6.266005 7.647445 3.513123
Ar 0.082473 0.142188 6.800944
Ar 7.498862 5.539454 2.657434
10
Lattice="10.0 0 0 0 10.0 0 0 0 10.0" Properties=species:S:1:pos:R:3 pbc="T T T" Time=943
Ar 1.380100 9.353973 5.260805
Ar 7.571442 3.047997 1.030604
Ar 0.575621 8.891465 6.156025
Ar 1.139826 1.630395 0.296969
Ar 8.180373 1.743258 3.300126
Ar 2.657884 9.560283 9.963543
Ar 9.890533 7.898659 1.269318
Ar 0.401585 3.101747 5.476718
Ar 0.057646 0.912724 4.018663
Ar 6.639492 8.486249 3.105275
10
Lattice="10.0 0 0 0 10.0 0 0 0 10.0" Properties=species:S:1:pos:R:3 pbc="T T T" Time=944
Ar 7.054285 2.516312 9.490958
Ar 9.680239 6.387409 3.549982
Ar 4.554352 0.927522 7.705308
Ar 0.569061 9.542885 9.703596
Ar 0.123465 1.434129 0.114648
Ar 8.589569 2.751504 2.150329
Ar 7.640845 9.445348 4.971717
Ar 4.537123 8.556150 7.440180
Ar 0.032819 1.683259 1.236383
Ar 5.780128 1.433037 3.553114
10
Lattice="10.0 0 0 0 10.0 0 0 0 10.0" Properties=species:S:1:pos:R:3 pbc="T T T" Time=945
Ar 2.728617 5.678730 3.720954
Ar 1.789035 9.726822 6.069359
Ar 8.532940 2.963497 9.254751
Ar 9.998295 7.455377 9.110223
Ar 2.066550 1.125003 6.929168
Ar 4.521257 5.942724 4.337114
Ar 5.391156 0.992035 8.674115
Ar 8.672662 4.010557 9.403643
Ar 0.007997 2.453793 8.454101
Ar 4.920764 4.379826 4.000953
10
Lattice="10.0 0 0 0 10.0 0 0 0 10.0" Properties=species:S:1:pos:R:3 pbc="T T T" Time=946
Ar 8.402947 8.841148 7.950950
Ar 3.897830 3.066235 8.588735
Ar 2.511528 4.999476 0.804194
Ar 9.427534 5.367849 8.516844
Ar 4.009641 0.815866 3.743564
Ar 0.452932 9.133954 6.523909
Ar 3.141468 2.538723 2.376514
Ar 2.808200 9.464958 1.367106
Ar 9.983178 3.224348 5.671941
Ar 4.061398 7.326615 4.448793
10
Lattice="10.0 0 0 0 10.0 0 0 0 10.0" Properties=species:S:1:pos:R:3 pbc="T T T" Time=947
Ar 4.077251 2.003565 2.180938
Ar 6.006616 6.405596 1.108080
Ar 6.490151 7.036004 2.353734
Ar 8.856772 3.280321 7.923465
Ar 5.952744 0.506780 0.557991
Ar 6.384614 2.325249 8.710725
Ar 0.891780 4.085410 6.078912
Ar 6.943663 4.918829 3.330496
Ar 9.958398 3.994886 2.889758
Ar 3.202051 0.273340 4.896619
10
Lattice="10.0 0 0 0 10.0 0 0 0 10.0" Properties=species:S:1:pos:R:3 pbc="T T T" Time=948
Ar 9.751553 5.165981 6.410928
Ar 8.115402 9.744957 3.627424
Ar 0.468774 9.072532 3.903273
Ar 8.286011 1.192793 7.330087
Ar 7.895849 0.197691 7.372422
Ar 2.316299 5.516544 0.897539
Ar 8.642090 5.632101 9.781309
Ar 1.079124 0.372699 5.293885
Ar 9.933619 4.765423 0.107574
Ar 2.342705 3.220065 5.344445
10
Lattice="10.0 0 0 0 10.0 0 0 0 10.0" Properties=species:S:1:pos:R:3 pbc="T T T" Time=949
Ar 5.425853 8.328398 0.640918
Ar 0.224146 3.084265 6.146660
Ar 4.447436 1.109119 5.452917
Ar 7.715250 9.105265 6.736709
Ar 9.838954 9.888599 4.186855
Ar 8.247983 8.707841 3.084351
Ar 6.392402 7.178792 3.483705
Ar 5.214587 5.826564 7.257277
Ar 9.908840 5.535960 7.325390
Ar 1.483358 6.166789 5.792272
10
Lattice="10.0 0 0 0 10.0 0 0 0 10.0" Properties=species:S:1:pos:R:3 pbc="T T T" Time=950
Ar 1.100154 1.490816 4.870908
Ar 2.332886 6.423574 8.665895
Ar 8.426098 3.145693 7.002548
Ar 7.144306 7.017271 6.143351
Ar 1.782243 9.579974 1.001267
Ar 4.179669 1.899138 5.271165
Ar 4.142646 8.725529 7.186084
Ar 9.350056 1.280440 9.220682
Ar 9.884126 6.306452 4.543222
Ar 0.624012 9.113514 6.240098
10
Lattice="10.0 0 0 0 10.0 0 0 0 10.0" Properties=species:S:1:pos:R:3 pbc="T T T" Time=951
Ar 6.774454 4.653233 9.100897
Ar 4.441626 9.762881 1.185130
Ar 2.404759 5.182268 8.552179
Ar 6.573362 4.929277 5.549994
Ar 3.725537 9.271353 7.815683
Ar 0.111355 5.090435 7.457973
Ar 1.892887 0.272262 0.888464
Ar 3.485525 6.734315 1.184087
Ar 9.859406 7.076944 1.761061
Ar 9.764671 2.060242 6.687920
10
Lattice="10.0 0 0 0 10.0 0 0 0 10.0" Properties=species:S:1:pos:R:3 pbc="T T T" Time=952
Ar 2.448753 7.815653 3.330885
Ar 6.550365 3.102187 3.704365
Ar 6.383420 7.218842 0.101809
Ar 6.002417 2.841282 4.956637
Ar 5.668831 8.962732 4.630099
Ar 6.043040 8.281731 9.644782
Ar 9.643128 1.818995 4.590845
Ar 7.620994 2.188191 3.147493
Ar 9.834687 7.847435 8.978898
Ar 8.905330 5.006968 7.135743
10
Lattice="10.0 0 0 0 10.0 0 0 0 10.0" Properties=species:S:1:pos:R:3 pbc="T T T" Time=953
Ar 8.123053 0.978072 7.560873
Ar 8.659108 6.441494 6.223600
Ar 0.362084 9.255417 1.651441
Ar 5.431473 0.753288 4.363280
Ar 7.612125 8.654110 1.444515
Ar 1.974723 1.473029 1.831589
Ar 7.393367 3.365729 8.293225
Ar 1.756463 7.642065 5.110900
Ar 9.809967 8.617925 6.196736
Ar 8.045988 7.953693 7.583565
10
Lattice="10.0 0 0 0 10.0 0 0 0 10.0" Properties=species:S:1:pos:R:3 pbc="T T T" Time=954
Ar 3.797352 4.140491 1.790862
Ar 0.767840 9.780899 8.742721
Ar 4.340811 1.291792 3.201158
Ar 4.860457 8.665263 3.770080
Ar 9.555420 8.345489 8.258931
Ar 7.906342 4.664525 4.018310
Ar 5.143609 4.912462 1.995608
Ar 5.892009 3.095874 7.074261
Ar 9.785248 9.388417 3.414573
Ar 7.186647 0.900418 8.031387
10
Lattice="10.0 0 0 0 10.0 0 0 0 10.0" Properties=species:S:1:pos:R:3 pbc="T T T" Time=955
Ar 9.471652 7.302909 6.020850
Ar 2.876574 3.120292 1.261835
Ar 8.319539 3.328166 4.750876
Ar 4.289442 6.577238 3.176880
Ar 1.498712 8.036867 5.073347
Ar 3.837963 7.856024 6.205032
Ar 2.893851 6.459198 5.697991
Ar 0.027559 8.549680 9.037620
Ar 9.760532 0.158915 0.632409
Ar 6.327297 3.847149 8.479221
10
Lattice="10.0 0 0 0 10.0 0 0 0 10.0" Properties=species:S:1:pos:R:3 pbc="T T T" Time=956
Ar 5.145874 0.465283 0.250825
Ar 4.985321 6.459701 3.780954
Ar 2.298266 5.364541 6.300593
Ar 3.718427 4.489210 2.583681
Ar 3.441991 7.728228 1.887757
Ar 9.769583 1.047523 8.391753
Ar 0.644169 8.005979 9.400386
Ar 4.163108 4.003488 1.000978
Ar 9.735817 0.929413 7.850245
Ar 5.467948 6.793879 8.927055
10
Lattice="10.0 0 0 0 10.0 0 0 0 10.0" Properties=species:S:1:pos:R:3 pbc="T T T" Time=957
Ar 0.820091 3.627655 4.480803
Ar 7.094069 9.799110 6.300073
Ar 6.276993 7.400916 7.850310
Ar 3.147413 2.401183 1.990480
Ar 5.385267 7.419599 8.702161
Ar 5.701229 4.239055 0.578489
Ar 8.394470 9.552718 3.102772
Ar 8.298658 9.457291 2.964332
Ar 9.711100 1.699916 5.068086
Ar 4.608599 9.740609 9.374889
10
Lattice="10.0 0 0 0 10.0 0 0 0 10.0" Properties=species:S:1:pos:R:3 pbc="T T T" Time=958
Ar 6.494307 6.790027 8.710781
Ar 9.202819 3.138521 8.819194
Ar 0.255721 9.437290 9.400027
Ar 2.576385 0.313168 1.397324
Ar 7.328541 7.110970 5.516564
Ar 1.029909 5.321514 3.095563
Ar 6.144771 1.099457 6.805159
Ar 2.434222 4.911079 4.927639
Ar 0.289349 4.579493 1.955589
Ar 3.749251 2.687338 9.822723
10
Lattice="10.0 0 0 0 10.0 0 0 0 10.0" Properties=species:S:1:pos:R:3 pbc="T T T" Time=959
Ar 2.168527 9.952405 2.940757
Ar 1.311569 6.477932 1.338316
Ar 4.234620 1.473660 0.949580
Ar 2.005356 8.225152 0.804169
Ar 9.271643 6.802343 2.331131
Ar 6.358590 6.403974 5.612636
Ar 4.035964 8.100624 5.684841
Ar 6.428894 4.910439 1.713650
Ar 0.867596 7.459066 8.843094
Ar 2.889901 5.634071 0.270558
10
Lattice="10.0 0 0 0 10.0 0 0 0 10.0" Properties=species:S:1:pos:R:3 pbc="T T T" Time=960
Ar 7.842747 3.114784 7.170733
Ar 3.420320 9.817344 3.857437
Ar 8.213520 3.510030 2.499132
Ar 1.434328 6.137136 0.211015
Ar 1.214746 6.493715 9.145697
Ar 1.687312 7.486480 8.129776
Ar 1.927156 5.101790 4.564522
Ar 0.423569 4.909797 8.499666
Ar 1.445797 0.338592 5.730528
Ar 2.030551 8.580805 0.718393
10
Lattice="10.0 0 0 0 10.0 0 0 0 10.0" Properties=species:S:1:pos:R:3 pbc="T T T" Time=961
Ar 3.516967 6.277163 1.400711
Ar 5.529058 3.156740 6.376570
Ar 2.192420 5.546400 4.048684
Ar 0.863309 4.049141 9.617857
Ar 3.157842 6.185088 5.960267
Ar 7.016036 8.568986 0.646916
Ar 9.818347 2.102958 3.444204
Ar 4.418245 4.909156 5.285681
Ar 2.023994 3.218118 2.617956
Ar 1.171213 1.527531 1.166221
10
Lattice="10.0 0 0 0 10.0 0 0 0 10.0" Properties=species:S:1:pos:R:3 pbc="T T T" Time=962
Ar 9.191186 9.439543 5.630690
Ar 7.637799 6.496136 8.895702
Ar 6.171319 7.582769 5.598236
Ar 0.292312 1.961112 9.024803
Ar 5.100891 5.876437 2.774828
Ar 2.344797 9.651572 3.163971
Ar 7.709538 9.104125 2.323886
Ar 8.412907 4.908487 2.071683
Ar 2.602190 6.097645 9.505384
Ar 0.311876 4.474262 1.614051
10
Lattice="10.0 0 0 0 10.0 0 0 0 10.0" Properties=species:S:1:pos:R:3 pbc="T T T" Time=963
Ar 4.865405 2.601923 9.860667
Ar 9.746542 9.835527 1.414837
Ar 0.150213 9.619139 7.147781
Ar 9.721314 9.873083 8.431748
Ar 7.043929 5.567805 9.589405
Ar 7.673559 0.734158 5.681027
Ar 5.600725 6.105292 1.203570
Ar 2.407583 4.907806 8.857675
Ar 3.180390 8.977174 6.392815
Ar 9.452538 7.420988 2.061878
10
Lattice="10.0 0 0 0 10.0 0 0 0 10.0" Properties=species:S:1:pos:R:3 pbc="T T T" Time=964
Ar 0.539625 5.764303 4.090645
Ar 1.855285 3.174918 3.933972
Ar 4.129106 1.655509 8.697326
Ar 9.150316 7.785055 7.838693
Ar 8.986966 5.259172 6.403982
Ar 3.002320 1.816744 8.198082
Ar 3.491913 3.106459 0.083254
Ar 6.402244 4.907129 5.643672
Ar 3.758591 1.856703 3.280245
Ar 8.593218 0.367710 2.509700
10
Lattice="10.0 0 0 0 10.0 0 0 0 10.0" Properties=species:S:1:pos:R:3 pbc="T T T" Time=965
Ar 6.213845 8.926682 8.320622
Ar 3.964029 6.514313 6.453107
Ar 8.108055 3.691845 0.246704
Ar 8.579263 5.697060 7.245804
Ar 0.930009 4.950538 3.218553
Ar 8.331081 2.899331 0.715137
Ar 1.383095 0.107628 8.962945
Ar 0.396903 4.906451 2.429668
Ar 4.336792 4.736233 0.167674
Ar 7.733897 3.314429 2.957524
10
Lattice="10.0 0 0 0 10.0 0 0 0 10.0" Properties=species:S:1:pos:R:3 pbc="T T T" Time=966
Ar 1.888065 2.089063 2.550599
Ar 6.072770 9.853709 8.972243
Ar 2.087226 5.728142 1.796170
Ar 8.008209 3.609066 6.652917
Ar 2.873053 4.641903 0.033125
Ar 3.659623 3.981945 3.232091
Ar 9.274274 7.108809 7.842648
Ar 4.391561 4.905774 9.215664
Ar 4.914997 7.615759 7.055103
Ar 6.874577 6.261147 3.405348
10
Lattice="10.0 0 0 0 10.0 0 0 0 10.0" Properties=species:S:1:pos:R:3 pbc="T T T" Time=967
Ar 7.562286 5.251444 6.780575
Ar 8.181510 3.193106 1.491379
Ar 6.067857 7.759247 3.348701
Ar 7.437155 1.521072 6.060030
Ar 4.812965 4.333008 6.843063
Ar 8.986706 5.069748 5.745970
Ar 7.165453 4.109990 6.722352
Ar 8.389352 4.905356 6.006294
Ar 5.493202 0.495286 3.942532
Ar 6.015253 9.207866 3.853179
10
Lattice="10.0 0 0 0 10.0 0 0 0 10.0" Properties=species:S:1:pos:R:3 pbc="T T T" Time=968
Ar 3.236505 8.413824 1.010551
Ar 0.290250 6.532503 4.010515
Ar 0.048484 9.790358 4.901239
Ar 6.866102 9.433078 5.467142
Ar 6.752841 4.024103 3.653014
Ar 4.313791 6.157552 8.259852
Ar 5.056633 1.111172 5.602055
Ar 2.387182 4.904945 2.796903
Ar 6.071407 3.374812 0.829960
Ar 5.155930 2.154585 4.301010
10
Lattice="10.0 0 0 0 10.0 0 0 0 10.0" Properties=species:S:1:pos:R:3 pbc="T T T" Time=969
Ar 8.910625 1.576483 5.240695
Ar 2.398991 9.871899 6.529652
Ar 4.029114 1.821373 6.453744
Ar 6.295049 7.345082 4.874255
Ar 8.692710 3.715198 0.462966
Ar 8.927164 7.048930 1.084756
Ar 2.947683 8.112101 4.481782
Ar 7.098959 5.100935 9.276299
Ar 6.649546 6.254498 7.717398
Ar 4.296668 5.101240 4.748863
10
Lattice="10.0 0 0 0 10.0 0 0 0 10.0" Properties=species:S:1:pos:R:3 pbc="T T T" Time=970
Ar 4.584746 4.739143 9.470838
Ar 4.507731 3.211296 9.048788
Ar 8.009745 3.852388 8.006248
Ar 5.723999 5.257082 4.281367
Ar 0.632581 3.406295 7.272918
Ar 3.540536 7.940308 3.909660
Ar 0.838727 5.112995 3.361557
Ar 1.810737 5.296924 5.755694
Ar 7.227685 9.134184 4.604836
Ar 3.437406 8.047931 5.196671
10
Lattice="10.0 0 0 0 10.0 0 0 0 10.0" Properties=species:S:1:pos:R:3 pbc="T T T" Time=971
Ar 0.258866 7.901802 3.700982
Ar 6.616468 6.550692 1.567927
Ar 1.990378 5.883405 9.558752
Ar 5.152950 3.169083 3.688479
Ar 2.572456 3.097390 4.082873
Ar 8.153910 8.831686 6.734565
Ar 8.729770 2.113889 2.241329
Ar 6.522516 5.492904 2.235101
Ar 7.805821 2.013881 1.492260
Ar 2.578144 0.994620 5.644478
10
Lattice="10.0 0 0 0 10.0 0 0 0 10.0" Properties=species:S:1:pos:R:3 pbc="T T T" Time=972
Ar 5.932991 1.064542 7.931148
Ar 8.725201 9.890008 4.087043
Ar 5.971010 7.914423 1.111257
Ar 4.581902 1.081084 3.095591
Ar 4.512331 2.788482 0.892828
Ar 2.767301 9.723047 9.559245
Ar 6.620812 9.114782 1.121099
Ar 1.234296 5.688886 8.714509
Ar 8.383956 4.893577 8.379683
Ar 1.718865 3.941329 6.092510
10
Lattice="10.0 0 0 0 10.0 0 0 0 10.0" Properties=species:S:1:pos:R:3 pbc="T T T" Time=973
Ar 1.607115 4.227281 2.161313
Ar 0.833952 3.229526 6.606033
Ar 9.951642 9.945440 2.663762
Ar 4.010855 8.993084 2.502703
Ar 6.452203 2.479577 7.702782
Ar 7.380692 0.614407 2.383924
Ar 4.512020 6.115693 0.001003
Ar 5.946059 5.884667 5.194045
Ar 8.961926 7.773256 5.266972
Ar 0.859585 6.888036 6.540543
10
Lattice="10.0 0 0 0 10.0 0 0 0 10.0" Properties=species:S:1:pos:R:3 pbc="T T T" Time=974
Ar 7.281240 7.390020 6.391478
Ar 2.942703 6.569043 9.125022
Ar 3.932184 1.976293 4.216265
Ar 3.439809 6.905084 1.909817
Ar 8.392076 2.170673 4.512735
Ar 1.994082 1.505767 5.208604
Ar 2.403318 3.116769 8.880909
Ar 0.657823 6.080449 1.673581
Ar 9.539894 0.652934 2.154261
Ar 0.000305 9.834742 6.988576
10
Lattice="10.0 0 0 0 10.0 0 0 0 10.0" Properties=species:S:1:pos:R:3 pbc="T T T" Time=975
Ar 2.955365 0.552760 0.621644
Ar 5.051454 9.908561 1.644012
Ar 7.912729 4.007145 5.768769
Ar 2.868762 4.817083 1.316931
Ar 0.331948 1.861769 1.322687
Ar 6.607470 2.397128 8.033284
Ar 0.294615 0.117845 7.760814
Ar 5.369586 6.276231 8.153117
Ar 0.117859 3.532614 9.041547
Ar 9.141029 2.781447 7.436611
10
Lattice="10.0 0 0 0 10.0 0 0 0 10.0" Properties=species:S:1:pos:R:3 pbc="T T T" Time=976
Ar 8.629490 3.715499 4.851809
Ar 7.160205 3.248078 4.163000
Ar 1.893281 6.037998 7.321268
Ar 2.297717 2.729083 0.724047
Ar 2.271819 1.552866 8.132641
Ar 1.220852 3.288488 0.857967
Ar 8.185913 7.118920 6.640720
Ar 0.081348 6.472012 4.632653
Ar 0.695825 6.412293 5.928833
Ar 8.281753 5.728151 7.884647
10
Lattice="10.0 0 0 0 10.0 0 0 0 10.0" Properties=species:S:1:pos:R:3 pbc="T T T" Time=977
Ar 4.303611 6.878239 9.081972
Ar 9.268961 6.587595 6.681990
Ar 5.873831 8.068855 8.873763
Ar 1.726672 0.641084 0.131162
Ar 4.211690 1.243962 4.942596
Ar 5.834230 4.179846 3.682651
Ar 6.077212 4.119994 5.520625
Ar 4.793110 6.667793 1.112190
Ar 1.273798 9.291980 2.816131
Ar 7.422473 8.674848 8.332672
10
Lattice="10.0 0 0 0 10.0 0 0 0 10.0" Properties=species:S:1:pos:R:3 pbc="T T T" Time=978
Ar 9.977781 0.040993 3.312157
Ar 1.377668 9.927095 9.200957
Ar 9.854400 0.099706 0.426280
Ar 1.155834 8.552977 9.538254
Ar 6.151561 0.935057 1.752550
Ar 0.447401 5.071313 6.507361
Ar 3.968505 1.121090 4.400513
Ar 9.504810 6.863582 7.591591
Ar 1.851820 2.171666 9.703540
Ar 6.563193 1.621524 8.780718
10
Lattice="10.0 0 0 0 10.0 0 0 0 10.0" Properties=species:S:1:pos:R:3 pbc="T T T" Time=979
Ar 5.651932 3.203737 7.542332
Ar 3.486375 3.266596 1.719924
Ar 3.834945 2.130555 1.978807
Ar 0.584997 6.464871 8.945345
Ar 8.091432 0.626152 8.562503
Ar 5.060568 5.962780 9.332042
Ar 1.859803 8.122186 3.280430
Ar 4.216512 7.059368 4.071006
Ar 2.429841 5.051351 6.590950
Ar 5.703954 4.568216 9.228749
10
Lattice="10.0 0 0 0 10.0 0 0 0 10.0" Properties=species:S:1:pos:R:3 pbc="T T T" Time=980
Ar 1.326082 6.366480 1.772509
Ar 5.595120 6.606232 4.238841
Ar 7.815469 4.161410 3.531350
Ar 0.014142 4.376615 8.352467
Ar 0.031302 0.317246 5.372457
Ar 9.673738 6.854242 2.156719
Ar 9.751100 5.123281 2.160348
Ar 8.928211 7.255159 0.550424
Ar 3.007864 7.931044 3.478361
Ar 4.844714 7.514908 9.676780
10
Lattice="10.0 0 0 0 10.0 0 0 0 10.0" Properties=species:S:1:pos:R:3 pbc="T T T" Time=981
Ar 7.000233 9.529217 6.002677
Ar 7.703798 9.946085 6.757710
Ar 1.796058 6.192048 5.083942
Ar 9.443287 2.288360 7.759590
Ar 1.971173 0.008340 2.182412
Ar 4.286867 7.745795 4.981403
Ar 7.642396 2.124378 1.040266
Ar 3.639912 7.450949 7.029842
Ar 3.585887 0.810736 0.365771
Ar 3.985516 0.461517 0.124812
10
Lattice="10.0 0 0 0 10.0 0 0 0 10.0" Properties=species:S:1:pos:R:3 pbc="T T T" Time=982
Ar 2.674436 2.691950 0.232833
Ar 9.812477 3.285938 9.276578
Ar 5.776646 8.222684 6.636536
Ar 8.872432 0.200105 7.166713
Ar 3.911044 9.699435 8.992366
Ar 8.899968 8.637400 7.806126
Ar 5.533684 9.125417 9.920186
Ar 8.351597 7.646749 3.509228
Ar 4.163911 3.690429 7.253182
Ar 3.126318 3.408126 0.572844
10
Lattice="10.0 0 0 0 10.0 0 0 0 10.0" Properties=species:S:1:pos:R:3 pbc="T T T" Time=983
Ar 8.348676 5.854706 4.463029
Ar 1.921118 6.625768 1.795407
Ar 9.757231 0.253319 8.189129
Ar 8.301578 8.111850 6.573835
Ar 5.850912 9.390528 5.802323
Ar 3.513073 9.529006 0.630840
Ar 3.424973 6.126457 8.800106
Ar 3.063280 7.842548 9.988624
Ar 8.343334 3.423011 1.969102
Ar 8.665723 9.501848 3.192364
10
Lattice="10.0 0 0 0 10.0 0 0 0 10.0" Properties=species:S:1:pos:R:3 pbc="T T T" Time=984
Ar 4.028474 9.026269 8.697407
Ar 4.029758 9.965599 4.314235
Ar 3.737817 2.283953 9.741722
Ar 7.730723 6.023647 5.980937
Ar 7.790762 9.081627 2.612271
Ar 8.126180 0.420560 3.455575
Ar 1.316279 3.127490 7.680037
Ar 7.774962 8.038347 6.468021
Ar 2.522757 3.155592 6.685020
Ar 4.199572 5.586762 5.807704
10
Lattice="10.0 0 0 0 10.0 0 0 0 10.0" Properties=species:S:1:pos:R:3 pbc="T T T" Time=985
Ar 9.708272 2.197831 2.931784
Ar 6.138396 3.305427 6.833067
Ar 7.718402 4.314588 1.294315
Ar 7.159869 3.935443 5.388039
Ar 9.730610 8.772727 9.422218
Ar 2.739294 1.312141 6.280320
Ar 9.207587 0.128514 6.559960
Ar 2.486637 8.234131 2.947410
Ar 6.702180 2.888174 1.400939
Ar 9.733420 1.671677 8.423043
10
Lattice="10.0 0 0 0 10.0 0 0 0 10.0" Properties=species:S:1:pos:R:3 pbc="T T T" Time=986
Ar 5.388070 5.369393 7.166162
Ar 8.247034 6.645255 9.351899
Ar 1.698988 6.345224 2.846909
Ar 6.589015 1.847226 4.795137
Ar 1.670444 8.463765 6.232127
Ar 7.352424 2.203784 9.105103
Ar 7.098825 7.129535 5.439941
Ar 7.198313 8.429928 9.426804
Ar 0.881672 2.620756 6.116799
Ar 5.267269 7.756593 1.038381
10
Lattice="10.0 0 0 0 10.0 0 0 0 10.0" Properties=species:S:1:pos:R:3 pbc="T T T" Time=987
Ar 1.067868 8.540955 1.400540
Ar 0.355656 9.985075 1.870752
Ar 5.679599 8.375895 4.399500
Ar 6.018175 9.759018 4.202215
Ar 3.610277 8.154803 3.042037
Ar 1.965554 3.095427 1.929887
Ar 4.990062 4.130555 4.319918
Ar 1.909989 8.625726 5.906197
Ar 5.061139 2.353303 0.832662
Ar 0.801119 3.841512 3.653723
10
Lattice="10.0 0 0 0 10.0 0 0 0 10.0" Properties=species:S:1:pos:R:3 pbc="T T T" Time=988
Ar 6.747666 1.712516 5.634919
Ar 2.464286 3.324882 4.389604
Ar 9.660210 0.406566 5.952091
Ar 5.447336 7.670810 3.609293
Ar 5.550111 7.845841 9.851947
Ar 6.578683 3.987070 4.754670
Ar 2.881299 1.131574 3.199894
Ar 6.621660 8.821536 2.385589
Ar 9.240605 2.085851 5.548526
Ar 6.334966 9.926430 6.269067
10
Lattice="10.0 0 0 0 10.0 0 0 0 10.0" Properties=species:S:1:pos:R:3 pbc="T T T" Time=989
Ar 2.427488 4.884027 9.869280
Ar 4.572891 6.664738 6.908473
Ar 3.640791 2.437097 7.504704
Ar 4.876532 5.582743 3.016351
Ar 7.489941 7.536878 6.661854
Ar 1.191818 4.878710 7.579447
Ar 0.772537 8.132594 2.079871
Ar 1.333330 9.017347 8.864982
Ar 3.420073 1.818398 0.264388
Ar 1.868808 6.011352 8.884417
10
Lattice="10.0 0 0 0 10.0 0 0 0 10.0" Properties=species:S:1:pos:R:3 pbc="T T T" Time=990
Ar 8.107311 8.055554 4.103636
Ar 6.681496 0.004599 9.427344
Ar 7.621381 4.467589 9.057326
Ar 4.305719 3.494667 2.423418
Ar 9.429771 7.227914 3.471760
Ar 5.804952 5.770354 0.404221
Ar 8.663775 5.133611 0.959845
Ar 6.045010 9.213167 5.344366
Ar 7.599534 1.550983 4.980242
Ar 7.402645 2.096252 1.499776
10
Lattice="10.0 0 0 0 10.0 0 0 0 10.0" Properties=species:S:1:pos:R:3 pbc="T T T" Time=991
Ar 3.787162 1.227025 8.338044
Ar 8.790100 3.344459 1.946214
Ar 1.601972 6.498081 0.609947
Ar 3.734906 1.406591 1.830485
Ar 1.369602 6.918950 0.281666
Ar 0.418073 6.661981 3.228972
Ar 6.555013 2.134628 9.839821
Ar 0.756689 9.408987 1.823750
Ar 1.778996 1.283568 9.696098
Ar 2.936465 8.181227 4.115107
10
Lattice="10.0 0 0 0 10.0 0 0 0 10.0" Properties=species:S:1:pos:R:3 pbc="T T T" Time=992
Ar 9.466970 4.398524 2.572472
Ar 0.898704 6.684318 4.465083
Ar 5.582562 8.528570 2.162559
Ar 3.164093 9.318515 1.237552
Ar 3.309479 6.609959 7.091551
Ar 5.031191 7.553609 6.053724
Ar 4.446255 9.135647 8.719802
Ar 5.468366 9.604807 8.303136
Ar 5.958459 1.016154 4.411953
Ar 8.470285 4.266201 6.730438
10
Lattice="10.0 0 0 0 10.0 0 0 0 10.0" Properties=species:S:1:pos:R:3 pbc="T T T" Time=993
Ar 5.146782 7.570022 6.806897
Ar 3.007308 0.024178 6.983953
Ar 7.432905 4.417368 0.705660
Ar 2.593280 7.230440 0.644621
Ar 7.379603 2.442658 6.910945
Ar 9.644307 8.445237 8.878478
Ar 2.337498 6.136666 7.599783
Ar 0.180041 9.800629 4.782522
Ar 0.137917 0.748741 9.127810
Ar 4.004107 0.351175 9.345770
10
Lattice="10.0 0 0 0 10.0 0 0 0 10.0" Properties=species:S:1:pos:R:3 pbc="T T T" Time=994
Ar 0.826594 0.741519 1.041321
Ar 5.115912 3.364038 9.502823
Ar 9.283250 0.306164 9.248760
Ar 2.022465 5.142365 0.051690
Ar 1.449720 8.275352 6.730342
Ar 4.257430 9.336867 1.703227
Ar 0.228554 3.137599 6.479840
Ar 4.891905 9.996538 1.261832
Ar 4.317375 0.481328 3.843666
Ar 9.537928 6.436149 1.961103
10
Lattice="10.0 0 0 0 10.0 0 0 0 10.0" Properties=species:S:1:pos:R:3 pbc="T T T" Time=995
Ar 6.506407 3.913017 5.275745
Ar 7.224515 6.703898 2.021690
Ar 1.133595 6.194960 7.791862
Ar 1.451649 3.054290 9.458761
Ar 5.519837 4.108046 6.549740
Ar 8.870552 0.228491 4.527975
Ar 8.119609 0.138532 5.359897
Ar 9.603768 0.192447 7.741142
Ar 8.496834 0.213921 8.559524
Ar 5.071751 2.521124 4.576438
10
Lattice="10.0 0 0 0 10.0 0 0 0 10.0" Properties=species:S:1:pos:R:3 pbc="T T T" Time=996
Ar 2.186223 7.084515 9.510172
Ar 9.333118 0.043759 4.540557
Ar 2.983936 2.083756 6.334959
Ar 0.880834 0.966215 8.865831
Ar 9.589955 9.940740 6.369138
Ar 3.484768 1.121251 7.351958
Ar 6.010665 7.139465 4.239953
Ar 4.314538 0.387217 4.221211
Ar 2.676293 9.946517 3.275388
Ar 0.605573 8.606099 7.191774
10
Lattice="10.0 0 0 0 10.0 0 0 0 10.0" Properties=species:S:1:pos:R:3 pbc="T T T" Time=997
Ar 7.866090 0.256013 3.744548
Ar 1.441722 3.383619 7.059424
Ar 4.834278 7.972552 4.878056
Ar 0.310019 8.878140 8.272902
Ar 3.660029 5.773445 6.188594
Ar 8.098990 2.014012 0.175933
Ar 3.901712 4.140397 3.120015
Ar 9.025454 0.581985 0.701174
Ar 6.855607 9.679116 7.991360
Ar 6.139387 4.691064 9.807103
10
Lattice="10.0 0 0 0 10.0 0 0 0 10.0" Properties=species:S:1:pos:R:3 pbc="T T T" Time=998
Ar 3.545958 3.427510 7.978923
Ar 3.550320 6.723481 9.578260
Ar 6.684579 3.861427 3.421071
Ar 9.739204 6.790066 7.679975
Ar 7.730090 1.606168 6.008067
Ar 2.713255 2.906694 2.999991
Ar 1.792760 1.141328 2.000077
Ar 3.736390 0.776757 7.181147
Ar 1.034902 9.411709 2.707321
Ar 1.673215 0.776007 2.422444
10
Lattice="10.0 0 0 0 10.0 0 0 0 10.0" Properties=species:S:1:pos:R:3 pbc="T T T" Time=999
Ar 9.225826 6.599008 2.213300
Ar 5.658918 0.063343 2.097096
Ar 8.534880 9.750304 1.964085
Ar 9.168389 4.701992 7.087048
Ar 1.800152 7.438890 5.827542
Ar 7.327500 3.799407 5.824038
Ar 9.683808 8.142259 0.880139
Ar 8.447345 0.971499 3.661131
Ar 5.214196 9.144302 7.423282
Ar 7.207044 6.860951 5.037785
