10
Lattice="10.0 0 0 0 10.0 0 0 0 10.0" Properties=species:S:1:pos:R:3 pbc="T T T" Time=0
Ar 0.351845 0.824542 0.050479
Ar 0.273951 0.962296 0.098931
Ar 0.494592 0.834696 0.733238
Ar 0.402962 0.058155 0.079436
Ar 0.824717 0.114522 0.791576
Ar 0.860664 0.917329 0.249939
Ar 0.471381 0.652469 0.714638
Ar 0.992123 0.988910 0.204718
Ar 0.268199 0.540137 0.933078
Ar 0.009684 0.822378 0.029820
10
Lattice="10.0 0 0 0 10.0 0 0 0 10.0" Properties=species:S:1:pos:R:3 pbc="T T T" Time=1
Ar 0.361359 0.828610 0.058798
Ar 0.278182 0.967363 0.105593
Ar 0.502220 0.840675 0.734551
Ar 0.412444 0.065977 0.081469
Ar 0.832239 0.117139 0.793376
Ar 0.864072 0.917565 0.253348
Ar 0.478512 0.661350 0.719545
Ar 0.998421 0.991227 0.205583
Ar 0.272008 0.545262 0.941663
Ar 0.018046 0.831074 0.030094
10
Lattice="10.0 0 0 0 10.0 0 0 0 10.0" Properties=species:S:1:pos:R:3 pbc="T T T" Time=2
Ar 0.370873 0.832678 0.067117
Ar 0.282413 0.972430 0.112254
Ar 0.509848 0.846654 0.735864
Ar 0.421926 0.073799 0.083502
Ar 0.839762 0.119755 0.795175
Ar 0.867480 0.917802 0.256758
Ar 0.485642 0.670232 0.724452
Ar 1.004719 0.993543 0.206448
Ar 0.275817 0.550387 0.950248
Ar 0.026408 0.839770 0.030369
10
Lattice="10.0 0 0 0 10.0 0 0 0 10.0" Properties=species:S:1:pos:R:3 pbc="T T T" Time=3
Ar 0.380387 0.836745 0.075436
Ar 0.286644 0.977496 0.118916
Ar 0.517476 0.852633 0.737177
Ar 0.431408 0.081621 0.085536
Ar 0.847284 0.122372 0.796975
Ar 0.870888 0.918038 0.260167
Ar 0.492773 0.679113 0.729359
Ar 1.011018 0.995859 0.207314
Ar 0.279626 0.555513 0.958832
Ar 0.034770 0.848466 0.030644
10
Lattice="10.0 0 0 0 10.0 0 0 0 10.0" Properties=species:S:1:pos:R:3 pbc="T T T" Time=4
Ar 0.389901 0.840813 0.083755
Ar 0.290875 0.982563 0.125577
Ar 0.525104 0.858612 0.738490
Ar 0.440891 0.089444 0.087569
Ar 0.854806 0.124989 0.798774
Ar 0.874296 0.918275 0.263577
Ar 0.499903 0.687994 0.734266
Ar 1.017316 0.998176 0.208179
Ar 0.283435 0.560638 0.967417
Ar 0.043132 0.857162 0.030918
10
Lattice="10.0 0 0 0 10.0 0 0 0 10.0" Properties=species:S:1:pos:R:3 pbc="T T T" Time=5
Ar 0.399415 0.844880 0.092074
Ar 0.295106 0.987629 0.132239
Ar 0.532732 0.864591 0.739803
Ar 0.450373 0.097266 0.089602
Ar 0.862328 0.127605 0.800573
Ar 0.877705 0.918511 0.266987
Ar 0.507034 0.696876 0.739173
Ar 1.023615 1.000492 0.209044
Ar 0.287245 0.565763 0.976002
Ar 0.051494 0.865858 0.031193
10
Lattice="10.0 0 0 0 10.0 0 0 0 10.0" Properties=species:S:1:pos:R:3 pbc="T T T" Time=6
Ar 0.408929 0.848948 0.100393
Ar 0.299338 0.992696 0.138901
Ar 0.540360 0.870570 0.741116
Ar 0.459855 0.105088 0.091636
Ar 0.869850 0.130222 0.802373
Ar 0.881113 0.918748 0.270396
Ar 0.514165 0.705757 0.744080
Ar 1.029913 1.002809 0.209909
Ar 0.291054 0.570889 0.984587
Ar 0.059856 0.874554 0.031468
10
Lattice="10.0 0 0 0 10.0 0 0 0 10.0" Properties=species:S:1:pos:R:3 pbc="T T T" Time=7
Ar 0.418443 0.853016 0.108712
Ar 0.303569 0.997763 0.145562
Ar 0.547988 0.876549 0.742429
Ar 0.469337 0.112910 0.093669
Ar 0.877372 0.132838 0.804172
Ar 0.884521 0.918984 0.273806
Ar 0.521295 0.714639 0.748988
Ar 1.036212 1.005125 0.210774
Ar 0.294863 0.576014 0.993172
Ar 0.068218 0.883250 0.031742
10
Lattice="10.0 0 0 0 10.0 0 0 0 10.0" Properties=species:S:1:pos:R:3 pbc="T T T" Time=8
Ar 0.427957 0.857083 0.117031
Ar 0.307800 1.002829 0.152224
Ar 0.555616 0.882528 0.743743
Ar 0.478820 0.120732 0.095702
Ar 0.884894 0.135455 0.805972
Ar 0.887929 0.919221 0.277215
Ar 0.528426 0.723520 0.753895
Ar 1.042510 1.007442 0.211640
Ar 0.298672 0.581139 1.001757
Ar 0.076580 0.891946 0.032017
10
Lattice="10.0 0 0 0 10.0 0 0 0 10.0" Properties=species:S:1:pos:R:3 pbc="T T T" Time=9
Ar 0.437471 0.861151 0.125350
Ar 0.312031 1.007896 0.158885
Ar 0.563244 0.888507 0.745056
Ar 0.488302 0.128554 0.097736
Ar 0.892416 0.138071 0.807771
Ar 0.891337 0.919457 0.280625
Ar 0.535557 0.732401 0.758802
Ar 1.048809 1.009758 0.212505
Ar 0.302481 0.586264 1.010342
Ar 0.084942 0.900642 0.032291
10
Lattice="10.0 0 0 0 10.0 0 0 0 10.0" Properties=species:S:1:pos:R:3 pbc="T T T" Time=10
Ar 0.446985 0.865218 0.133669
Ar 0.316262 1.012963 0.165547
Ar 0.570872 0.894487 0.746369
Ar 0.497784 0.136376 0.099769
Ar 0.899938 0.140688 0.809570
Ar 0.894745 0.919694 0.284035
Ar 0.542687 0.741283 0.763709
Ar 1.055107 1.012075 0.213370
Ar 0.306291 0.591390 1.018927
Ar 0.093304 0.909338 0.032566
10
Lattice="10.0 0 0 0 10.0 0 0 0 10.0" Properties=species:S:1:pos:R:3 pbc="T T T" Time=11
Ar 0.456499 0.869286 0.141988
Ar 0.320493 1.018029 0.172208
Ar 0.578500 0.900466 0.747682
Ar 0.507266 0.144198 0.101802
Ar 0.907460 0.143305 0.811370
Ar 0.898153 0.919930 0.287444
Ar 0.549818 0.750164 0.768616
Ar 1.061406 1.014391 0.214235
Ar 0.310100 0.596515 1.027512
Ar 0.101666 0.918034 0.032841
10
Lattice="10.0 0 0 0 10.0 0 0 0 10.0" Properties=species:S:1:pos:R:3 pbc="T T T" Time=12
Ar 0.466013 0.873354 0.150307
Ar 0.324724 1.023096 0.178870
Ar 0.586128 0.906445 0.748995
Ar 0.516748 0.152020 0.103836
Ar 0.914982 0.145921 0.813169
Ar 0.901561 0.920167 0.290854
Ar 0.556948 0.759046 0.773523
Ar 1.067704 1.016708 0.215100
Ar 0.313909 0.601640 1.036097
Ar 0.110028 0.926730 0.033115
10
Lattice="10.0 0 0 0 10.0 0 0 0 10.0" Properties=species:S:1:pos:R:3 pbc="T T T" Time=13
Ar 0.475527 0.877421 0.158626
Ar 0.328956 1.028163 0.185531
Ar 0.593756 0.912424 0.750308
Ar 0.526231 0.159842 0.105869
Ar 0.922504 0.148538 0.814969
Ar 0.904969 0.920403 0.294263
Ar 0.564079 0.767927 0.778430
Ar 1.074003 1.019024 0.215966
Ar 0.317718 0.606766 1.044681
Ar 0.118390 0.935425 0.033390
10
Lattice="10.0 0 0 0 10.0 0 0 0 10.0" Properties=species:S:1:pos:R:3 pbc="T T T" Time=14
Ar 0.485041 0.881489 0.166945
Ar 0.333187 1.033229 0.192193
Ar 0.601384 0.918403 0.751621
Ar 0.535713 0.167664 0.107902
Ar 0.930027 0.151154 0.816768
Ar 0.908377 0.920639 0.297673
Ar 0.571210 0.776808 0.783337
Ar 1.080301 1.021341 0.216831
Ar 0.321527 0.611891 1.053266
Ar 0.126752 0.944121 0.033665
10
Lattice="10.0 0 0 0 10.0 0 0 0 10.0" Properties=species:S:1:pos:R:3 pbc="T T T" Time=15
Ar 0.494555 0.885556 0.175264
Ar 0.337418 1.038296 0.198854
Ar 0.609012 0.924382 0.752934
Ar 0.545195 0.175486 0.109936
Ar 0.937549 0.153771 0.818568
Ar 0.911785 0.920876 0.301083
Ar 0.578340 0.785690 0.788244
Ar 1.086600 1.023657 0.217696
Ar 0.325336 0.617016 1.061851
Ar 0.135113 0.952817 0.033939
10
Lattice="10.0 0 0 0 10.0 0 0 0 10.0" Properties=species:S:1:pos:R:3 pbc="T T T" Time=16
Ar 0.504069 0.889624 0.183583
Ar 0.341649 1.043363 0.205516
Ar 0.616640 0.930361 0.754247
Ar 0.554677 0.183308 0.111969
Ar 0.945071 0.156387 0.820367
Ar 0.915193 0.921112 0.304492
Ar 0.585471 0.794571 0.793151
Ar 1.092898 1.025974 0.218561
Ar 0.329146 0.622142 1.070436
Ar 0.143475 0.961513 0.034214
10
Lattice="10.0 0 0 0 10.0 0 0 0 10.0" Properties=species:S:1:pos:R:3 pbc="T T T" Time=17
Ar 0.513583 0.893691 0.191902
Ar 0.345880 1.048429 0.212178
Ar 0.624268 0.936340 0.755560
Ar 0.564159 0.191131 0.114003
Ar 0.952593 0.159004 0.822166
Ar 0.918602 0.921349 0.307902
Ar 0.592602 0.803453 0.798058
Ar 1.099197 1.028290 0.219427
Ar 0.332955 0.627267 1.079021
Ar 0.151837 0.970209 0.034488
10
Lattice="10.0 0 0 0 10.0 0 0 0 10.0" Properties=species:S:1:pos:R:3 pbc="T T T" Time=18
Ar 0.523098 0.897759 0.200221
Ar 0.350111 1.053496 0.218839
Ar 0.631896 0.942319 0.756873
Ar 0.573642 0.198953 0.116036
Ar 0.960115 0.161621 0.823966
Ar 0.922010 0.921585 0.311311
Ar 0.599732 0.812334 0.802965
Ar 1.105495 1.030607 0.220292
Ar 0.336764 0.632392 1.087606
Ar 0.160199 0.978905 0.034763
10
Lattice="10.0 0 0 0 10.0 0 0 0 10.0" Properties=species:S:1:pos:R:3 pbc="T T T" Time=19
Ar 0.532612 0.901827 0.208540
Ar 0.354342 1.058562 0.225501
Ar 0.639524 0.948298 0.758186
Ar 0.583124 0.206775 0.118069
Ar 0.967637 0.164237 0.825765
Ar 0.925418 0.921822 0.314721
Ar 0.606863 0.821215 0.807872
Ar 1.111794 1.032923 0.221157
Ar 0.340573 0.637518 1.096191
Ar 0.168561 0.987601 0.035038
10
Lattice="10.0 0 0 0 10.0 0 0 0 10.0" Properties=species:S:1:pos:R:3 pbc="T T T" Time=20
Ar 0.542126 0.905894 0.216859
Ar 0.358573 1.063629 0.232162
Ar 0.647152 0.954277 0.759499
Ar 0.592606 0.214597 0.120103
Ar 0.975159 0.166854 0.827565
Ar 0.928826 0.922058 0.318131
Ar 0.613993 0.830097 0.812779
Ar 1.118092 1.035240 0.222022
Ar 0.344382 0.642643 1.104776
Ar 0.176923 0.996297 0.035312
10
Lattice="10.0 0 0 0 10.0 0 0 0 10.0" Properties=species:S:1:pos:R:3 pbc="T T T" Time=21
Ar 0.551640 0.909962 0.225178
Ar 0.362805 1.068696 0.238824
Ar 0.654780 0.960256 0.760812
Ar 0.602088 0.222419 0.122136
Ar 0.982681 0.169470 0.829364
Ar 0.932234 0.922295 0.321540
Ar 0.621124 0.838978 0.817686
Ar 1.124391 1.037556 0.222887
Ar 0.348191 0.647768 1.113361
Ar 0.185285 1.004993 0.035587
10
Lattice="10.0 0 0 0 10.0 0 0 0 10.0" Properties=species:S:1:pos:R:3 pbc="T T T" Time=22
Ar 0.561154 0.914029 0.233497
Ar 0.367036 1.073762 0.245485
Ar 0.662408 0.966235 0.762125
Ar 0.611570 0.230241 0.124169
Ar 0.990203 0.172087 0.831164
Ar 0.935642 0.922531 0.324950
Ar 0.628255 0.847859 0.822593
Ar 1.130689 1.039873 0.223753
Ar 0.352001 0.652894 1.121945
Ar 0.193647 1.013689 0.035861
10
Lattice="10.0 0 0 0 10.0 0 0 0 10.0" Properties=species:S:1:pos:R:3 pbc="T T T" Time=23
Ar 0.570668 0.918097 0.241816
Ar 0.371267 1.078829 0.252147
Ar 0.670036 0.972215 0.763438
Ar 0.621053 0.238063 0.126203
Ar 0.997725 0.174703 0.832963
Ar 0.939050 0.922768 0.328359
Ar 0.635385 0.856741 0.827500
Ar 1.136988 1.042189 0.224618
Ar 0.355810 0.658019 1.130530
Ar 0.202009 1.022385 0.036136
10
Lattice="10.0 0 0 0 10.0 0 0 0 10.0" Properties=species:S:1:pos:R:3 pbc="T T T" Time=24
Ar 0.580182 0.922165 0.250135
Ar 0.375498 1.083896 0.258808
Ar 0.677664 0.978194 0.764751
Ar 0.630535 0.245885 0.128236
Ar 1.005247 0.177320 0.834762
Ar 0.942458 0.923004 0.331769
Ar 0.642516 0.865622 0.832407
Ar 1.143286 1.044506 0.225483
Ar 0.359619 0.663144 1.139115
Ar 0.210371 1.031081 0.036411
10
Lattice="10.0 0 0 0 10.0 0 0 0 10.0" Properties=species:S:1:pos:R:3 pbc="T T T" Time=25
Ar 0.589696 0.926232 0.258454
Ar 0.379729 1.088962 0.265470
Ar 0.685292 0.984173 0.766064
Ar 0.640017 0.253707 0.130269
Ar 1.012769 0.179937 0.836562
Ar 0.945866 0.923241 0.335179
Ar 0.649647 0.874504 0.837314
Ar 1.149585 1.046822 0.226348
Ar 0.363428 0.668270 1.147700
Ar 0.218733 1.039777 0.036685
10
Lattice="10.0 0 0 0 10.0 0 0 0 10.0" Properties=species:S:1:pos:R:3 pbc="T T T" Time=26
Ar 0.599210 0.930300 0.266773
Ar 0.383960 1.094029 0.272131
Ar 0.692920 0.990152 0.767377
Ar 0.649499 0.261529 0.132303
Ar 1.020292 0.182553 0.838361
Ar 0.949274 0.923477 0.338588
Ar 0.656777 0.883385 0.842221
Ar 1.155883 1.049139 0.227213
Ar 0.367237 0.673395 1.156285
Ar 0.227095 1.048473 0.036960
10
Lattice="10.0 0 0 0 10.0 0 0 0 10.0" Properties=species:S:1:pos:R:3 pbc="T T T" Time=27
Ar 0.608724 0.934367 0.275092
Ar 0.388191 1.099096 0.278793
Ar 0.700548 0.996131 0.768690
Ar 0.658981 0.269351 0.134336
Ar 1.027814 0.185170 0.840161
Ar 0.952682 0.923714 0.341998
Ar 0.663908 0.892266 0.847128
Ar 1.162182 1.051455 0.228079
Ar 0.371047 0.678520 1.164870
Ar 0.235457 1.057169 0.037235
10
Lattice="10.0 0 0 0 10.0 0 0 0 10.0" Properties=species:S:1:pos:R:3 pbc="T T T" Time=28
Ar 0.618238 0.938435 0.283411
Ar 0.392423 1.104162 0.285454
Ar 0.708176 1.002110 0.770003
Ar 0.668464 0.277173 0.136369
Ar 1.035336 0.187786 0.841960
Ar 0.956090 0.923950 0.345407
Ar 0.671039 0.901148 0.852036
Ar 1.168480 1.053772 0.228944
Ar 0.374856 0.683646 1.173455
Ar 0.243819 1.065865 0.037509
10
Lattice="10.0 0 0 0 10.0 0 0 0 10.0" Properties=species:S:1:pos:R:3 pbc="T T T" Time=29
Ar 0.627752 0.942503 0.291730
Ar 0.396654 1.109229 0.292116
Ar 0.715804 1.008089 0.771316
Ar 0.677946 0.284996 0.138403
Ar 1.042858 0.190403 0.843760
Ar 0.959499 0.924187 0.348817
Ar 0.678169 0.910029 0.856943
Ar 1.174779 1.056088 0.229809
Ar 0.378665 0.688771 1.182040
Ar 0.252181 1.074561 0.037784
10
Lattice="10.0 0 0 0 10.0 0 0 0 10.0" Properties=species:S:1:pos:R:3 pbc="T T T" Time=30
Ar 0.637266 0.946570 0.300049
Ar 0.400885 1.114296 0.298778
Ar 0.723432 1.014068 0.772629
Ar 0.687428 0.292818 0.140436
Ar 1.050380 0.193019 0.845559
Ar 0.962907 0.924423 0.352227
Ar 0.685300 0.918911 0.861850
Ar 1.181077 1.058405 0.230674
Ar 0.382474 0.693896 1.190625
Ar 0.260543 1.083257 0.038058
10
Lattice="10.0 0 0 0 10.0 0 0 0 10.0" Properties=species:S:1:pos:R:3 pbc="T T T" Time=31
Ar 0.646780 0.950638 0.308368
Ar 0.405116 1.119362 0.305439
Ar 0.731060 1.020047 0.773942
Ar 0.696910 0.300640 0.142469
Ar 1.057902 0.195636 0.847358
Ar 0.966315 0.924660 0.355636
Ar 0.692430 0.927792 0.866757
Ar 1.187376 1.060721 0.231539
Ar 0.386283 0.699022 1.199210
Ar 0.268905 1.091953 0.038333
10
Lattice="10.0 0 0 0 10.0 0 0 0 10.0" Properties=species:S:1:pos:R:3 pbc="T T T" Time=32
Ar 0.656294 0.954705 0.316687
Ar 0.409347 1.124429 0.312101
Ar 0.738688 1.026026 0.775255
Ar 0.706392 0.308462 0.144503
Ar 1.065424 0.198253 0.849158
Ar 0.969723 0.924896 0.359046
Ar 0.699561 0.936673 0.871664
Ar 1.193674 1.063038 0.232405
Ar 0.390092 0.704147 1.207794
Ar 0.277267 1.100649 0.038608
10
Lattice="10.0 0 0 0 10.0 0 0 0 10.0" Properties=species:S:1:pos:R:3 pbc="T T T" Time=33
Ar 0.665808 0.958773 0.325006
Ar 0.413578 1.129495 0.318762
Ar 0.746316 1.032005 0.776568
Ar 0.715875 0.316284 0.146536
Ar 1.072946 0.200869 0.850957
Ar 0.973131 0.925132 0.362455
Ar 0.706692 0.945555 0.876571
Ar 1.199973 1.065354 0.233270
Ar 0.393902 0.709272 1.216379
Ar 0.285629 1.109345 0.038882
10
Lattice="10.0 0 0 0 10.0 0 0 0 10.0" Properties=species:S:1:pos:R:3 pbc="T T T" Time=34
Ar 0.675322 0.962841 0.333325
Ar 0.417809 1.134562 0.325424
Ar 0.753944 1.037984 0.777881
Ar 0.725357 0.324106 0.148570
Ar 1.080468 0.203486 0.852757
Ar 0.976539 0.925369 0.365865
Ar 0.713822 0.954436 0.881478
Ar 1.206271 1.067671 0.234135
Ar 0.397711 0.714398 1.224964
Ar 0.293991 1.118041 0.039157
10
Lattice="10.0 0 0 0 10.0 0 0 0 10.0" Properties=species:S:1:pos:R:3 pbc="T T T" Time=35
Ar 0.684836 0.966908 0.341644
Ar 0.422041 1.139629 0.332085
Ar 0.761572 1.043963 0.779194
Ar 0.734839 0.331928 0.150603
Ar 1.087990 0.206102 0.854556
Ar 0.979947 0.925605 0.369275
Ar 0.720953 0.963318 0.886385
Ar 1.212570 1.069987 0.235000
Ar 0.401520 0.719523 1.233549
Ar 0.302353 1.126736 0.039431
10
Lattice="10.0 0 0 0 10.0 0 0 0 10.0" Properties=species:S:1:pos:R:3 pbc="T T T" Time=36
Ar 0.694350 0.970976 0.349963
Ar 0.426272 1.144695 0.338747
Ar 0.769200 1.049943 0.780507
Ar 0.744321 0.339750 0.152636
Ar 1.095512 0.208719 0.856356
Ar 0.983355 0.925842 0.372684
Ar 0.728084 0.972199 0.891292
Ar 1.218868 1.072304 0.235865
Ar 0.405329 0.724648 1.242134
Ar 0.310715 1.135432 0.039706
10
Lattice="10.0 0 0 0 10.0 0 0 0 10.0" Properties=species:S:1:pos:R:3 pbc="T T T" Time=37
Ar 0.703864 0.975043 0.358282
Ar 0.430503 1.149762 0.345408
Ar 0.776828 1.055922 0.781820
Ar 0.753803 0.347572 0.154670
Ar 1.103035 0.211335 0.858155
Ar 0.986763 0.926078 0.376094
Ar 0.735214 0.981080 0.896199
Ar 1.225167 1.074620 0.236731
Ar 0.409138 0.729773 1.250719
Ar 0.319077 1.144128 0.039981
10
Lattice="10.0 0 0 0 10.0 0 0 0 10.0" Properties=species:S:1:pos:R:3 pbc="T T T" Time=38
Ar 0.713378 0.979111 0.366601
Ar 0.434734 1.154829 0.352070
Ar 0.784456 1.061901 0.783133
Ar 0.763286 0.355394 0.156703
Ar 1.110557 0.213952 0.859954
Ar 0.990171 0.926315 0.379503
Ar 0.742345 0.989962 0.901106
Ar 1.231465 1.076937 0.237596
Ar 0.412948 0.734899 1.259304
Ar 0.327439 1.152824 0.040255
10
Lattice="10.0 0 0 0 10.0 0 0 0 10.0" Properties=species:S:1:pos:R:3 pbc="T T T" Time=39
Ar 0.722892 0.983179 0.374920
Ar 0.438965 1.159895 0.358731
Ar 0.792083 1.067880 0.784446
Ar 0.772768 0.363216 0.158736
Ar 1.118079 0.216569 0.861754
Ar 0.993579 0.926551 0.382913
Ar 0.749475 0.998843 0.906013
Ar 1.237764 1.079253 0.238461
Ar 0.416757 0.740024 1.267889
Ar 0.335801 1.161520 0.040530
10
Lattice="10.0 0 0 0 10.0 0 0 0 10.0" Properties=species:S:1:pos:R:3 pbc="T T T" Time=40
Ar 0.732407 0.987246 0.383239
Ar 0.443196 1.164962 0.365393
Ar 0.799711 1.073859 0.785759
Ar 0.782250 0.371038 0.160770
Ar 1.125601 0.219185 0.863553
Ar 0.996987 0.926788 0.386323
Ar 0.756606 1.007725 0.910920
Ar 1.244062 1.081570 0.239326
Ar 0.420566 0.745149 1.276474
Ar 0.344163 1.170216 0.040805
10
Lattice="10.0 0 0 0 10.0 0 0 0 10.0" Properties=species:S:1:pos:R:3 pbc="T T T" Time=41
Ar 0.741921 0.991314 0.391558
Ar 0.447427 1.170029 0.372055
Ar 0.807339 1.079838 0.787072
Ar 0.791732 0.378860 0.162803
Ar 1.133123 0.221802 0.865353
Ar 1.000396 0.927024 0.389732
Ar 0.763737 1.016606 0.915827
Ar 1.250361 1.083886 0.240191
Ar 0.424375 0.750275 1.285059
Ar 0.352525 1.178912 0.041079
10
Lattice="10.0 0 0 0 10.0 0 0 0 10.0" Properties=species:S:1:pos:R:3 pbc="T T T" Time=42
Ar 0.751435 0.995381 0.399877
Ar 0.451658 1.175095 0.378716
Ar 0.814967 1.085817 0.788385
Ar 0.801214 0.386683 0.164836
Ar 1.140645 0.224418 0.867152
Ar 1.003804 0.927261 0.393142
Ar 0.770867 1.025487 0.920734
Ar 1.256659 1.086203 0.241057
Ar 0.428184 0.755400 1.293643
Ar 0.360886 1.187608 0.041354
10
Lattice="10.0 0 0 0 10.0 0 0 0 10.0" Properties=species:S:1:pos:R:3 pbc="T T T" Time=43
Ar 0.760949 0.999449 0.408196
Ar 0.455890 1.180162 0.385378
Ar 0.822595 1.091796 0.789698
Ar 0.810697 0.394505 0.166870
Ar 1.148167 0.227035 0.868952
Ar 1.007212 0.927497 0.396551
Ar 0.777998 1.034369 0.925641
Ar 1.262958 1.088519 0.241922
Ar 0.431993 0.760525 1.302228
Ar 0.369248 1.196304 0.041628
10
Lattice="10.0 0 0 0 10.0 0 0 0 10.0" Properties=species:S:1:pos:R:3 pbc="T T T" Time=44
Ar 0.770463 1.003516 0.416515
Ar 0.460121 1.185228 0.392039
Ar 0.830223 1.097775 0.791011
Ar 0.820179 0.402327 0.168903
Ar 1.155689 0.229651 0.870751
Ar 1.010620 0.927734 0.399961
Ar 0.785129 1.043250 0.930548
Ar 1.269256 1.090836 0.242787
Ar 0.435803 0.765651 1.310813
Ar 0.377610 1.205000 0.041903
10
Lattice="10.0 0 0 0 10.0 0 0 0 10.0" Properties=species:S:1:pos:R:3 pbc="T T T" Time=45
Ar 0.779977 1.007584 0.424834
Ar 0.464352 1.190295 0.398701
Ar 0.837851 1.103754 0.792324
Ar 0.829661 0.410149 0.170936
Ar 1.163211 0.232268 0.872550
Ar 1.014028 0.927970 0.403371
Ar 0.792259 1.052132 0.935455
Ar 1.275555 1.093152 0.243652
Ar 0.439612 0.770776 1.319398
Ar 0.385972 1.213696 0.042178
10
Lattice="10.0 0 0 0 10.0 0 0 0 10.0" Properties=species:S:1:pos:R:3 pbc="T T T" Time=46
Ar 0.789491 1.011652 0.433153
Ar 0.468583 1.195362 0.405362
Ar 0.845479 1.109733 0.793637
Ar 0.839143 0.417971 0.172970
Ar 1.170733 0.234885 0.874350
Ar 1.017436 0.928207 0.406780
Ar 0.799390 1.061013 0.940362
Ar 1.281853 1.095468 0.244517
Ar 0.443421 0.775901 1.327983
Ar 0.394334 1.222392 0.042452
10
Lattice="10.0 0 0 0 10.0 0 0 0 10.0" Properties=species:S:1:pos:R:3 pbc="T T T" Time=47
Ar 0.799005 1.015719 0.441472
Ar 0.472814 1.200428 0.412024
Ar 0.853107 1.115712 0.794950
Ar 0.848625 0.425793 0.175003
Ar 1.178255 0.237501 0.876149
Ar 1.020844 0.928443 0.410190
Ar 0.806520 1.069894 0.945269
Ar 1.288152 1.097785 0.245383
Ar 0.447230 0.781027 1.336568
Ar 0.402696 1.231088 0.042727
10
Lattice="10.0 0 0 0 10.0 0 0 0 10.0" Properties=species:S:1:pos:R:3 pbc="T T T" Time=48
Ar 0.808519 1.019787 0.449791
Ar 0.477045 1.205495 0.418685
Ar 0.860735 1.121691 0.796263
Ar 0.858108 0.433615 0.177036
Ar 1.185777 0.240118 0.877949
Ar 1.024252 0.928680 0.413599
Ar 0.813651 1.078776 0.950176
Ar 1.294450 1.100101 0.246248
Ar 0.451039 0.786152 1.345153
Ar 0.411058 1.239784 0.043002
10
Lattice="10.0 0 0 0 10.0 0 0 0 10.0" Properties=species:S:1:pos:R:3 pbc="T T T" Time=49
Ar 0.818033 1.023854 0.458110
Ar 0.481276 1.210562 0.425347
Ar 0.868363 1.127671 0.797576
Ar 0.867590 0.441437 0.179070
Ar 1.193300 0.242734 0.879748
Ar 1.027660 0.928916 0.417009
Ar 0.820782 1.087657 0.955084
Ar 1.300749 1.102418 0.247113
Ar 0.454848 0.791277 1.353738
Ar 0.419420 1.248480 0.043276
10
Lattice="10.0 0 0 0 10.0 0 0 0 10.0" Properties=species:S:1:pos:R:3 pbc="T T T" Time=50
Ar 0.827547 1.027922 0.466429
Ar 0.485508 1.215628 0.432008
Ar 0.875991 1.133650 0.798889
Ar 0.877072 0.449259 0.181103
Ar 1.200822 0.245351 0.881547
Ar 1.031068 0.929153 0.420419
Ar 0.827912 1.096538 0.959991
Ar 1.307047 1.104734 0.247978
Ar 0.458658 0.796403 1.362323
Ar 0.427782 1.257176 0.043551
10
Lattice="10.0 0 0 0 10.0 0 0 0 10.0" Properties=species:S:1:pos:R:3 pbc="T T T" Time=51
Ar 0.837061 1.031990 0.474748
Ar 0.489739 1.220695 0.438670
Ar 0.883619 1.139629 0.800202
Ar 0.886554 0.457081 0.183137
Ar 1.208344 0.247967 0.883347
Ar 1.034476 0.929389 0.423828
Ar 0.835043 1.105420 0.964898
Ar 1.313346 1.107051 0.248843
Ar 0.462467 0.801528 1.370907
Ar 0.436144 1.265872 0.043825
10
Lattice="10.0 0 0 0 10.0 0 0 0 10.0" Properties=species:S:1:pos:R:3 pbc="T T T" Time=52
Ar 0.846575 1.036057 0.483067
Ar 0.493970 1.225762 0.445331
Ar 0.891247 1.145608 0.801515
Ar 0.896037 0.464903 0.185170
Ar 1.215866 0.250584 0.885146
Ar 1.037884 0.929625 0.427238
Ar 0.842174 1.114301 0.969805
Ar 1.319644 1.109367 0.249709
Ar 0.466276 0.806653 1.379492
Ar 0.444506 1.274568 0.044100
10
Lattice="10.0 0 0 0 10.0 0 0 0 10.0" Properties=species:S:1:pos:R:3 pbc="T T T" Time=53
Ar 0.856089 1.040125 0.491386
Ar 0.498201 1.230828 0.451993
Ar 0.898875 1.151587 0.802828
Ar 0.905519 0.472725 0.187203
Ar 1.223388 0.253201 0.886946
Ar 1.041293 0.929862 0.430647
Ar 0.849304 1.123183 0.974712
Ar 1.325943 1.111684 0.250574
Ar 0.470085 0.811779 1.388077
Ar 0.452868 1.283264 0.044375
10
Lattice="10.0 0 0 0 10.0 0 0 0 10.0" Properties=species:S:1:pos:R:3 pbc="T T T" Time=54
Ar 0.865603 1.044192 0.499705
Ar 0.502432 1.235895 0.458655
Ar 0.906503 1.157566 0.804141
Ar 0.915001 0.480547 0.189237
Ar 1.230910 0.255817 0.888745
Ar 1.044701 0.930098 0.434057
Ar 0.856435 1.132064 0.979619
Ar 1.332241 1.114000 0.251439
Ar 0.473894 0.816904 1.396662
Ar 0.461230 1.291960 0.044649
10
Lattice="10.0 0 0 0 10.0 0 0 0 10.0" Properties=species:S:1:pos:R:3 pbc="T T T" Time=55
Ar 0.875117 1.048260 0.508024
Ar 0.506663 1.240962 0.465316
Ar 0.914131 1.163545 0.805454
Ar 0.924483 0.488370 0.191270
Ar 1.238432 0.258434 0.890545
Ar 1.048109 0.930335 0.437467
Ar 0.863565 1.140945 0.984526
Ar 1.338540 1.116317 0.252304
Ar 0.477704 0.822029 1.405247
Ar 0.469592 1.300656 0.044924
10
Lattice="10.0 0 0 0 10.0 0 0 0 10.0" Properties=species:S:1:pos:R:3 pbc="T T T" Time=56
Ar 0.884631 1.052328 0.516343
Ar 0.510894 1.246028 0.471978
Ar 0.921759 1.169524 0.806767
Ar 0.933965 0.496192 0.193303
Ar 1.245954 0.261050 0.892344
Ar 1.051517 0.930571 0.440876
Ar 0.870696 1.149827 0.989433
Ar 1.344838 1.118633 0.253169
Ar 0.481513 0.827155 1.413832
Ar 0.477954 1.309351 0.045198
10
Lattice="10.0 0 0 0 10.0 0 0 0 10.0" Properties=species:S:1:pos:R:3 pbc="T T T" Time=57
Ar 0.894145 1.056395 0.524662
Ar 0.515125 1.251095 0.478639
Ar 0.929387 1.175503 0.808080
Ar 0.943448 0.504014 0.195337
Ar 1.253476 0.263667 0.894143
Ar 1.054925 0.930808 0.444286
Ar 0.877827 1.158708 0.994340
Ar 1.351137 1.120950 0.254035
Ar 0.485322 0.832280 1.422417
Ar 0.486316 1.318047 0.045473
10
Lattice="10.0 0 0 0 10.0 0 0 0 10.0" Properties=species:S:1:pos:R:3 pbc="T T T" Time=58
Ar 0.903659 1.060463 0.532981
Ar 0.519357 1.256161 0.485301
Ar 0.937015 1.181482 0.809393
Ar 0.952930 0.511836 0.197370
Ar 1.260998 0.266283 0.895943
Ar 1.058333 0.931044 0.447695
Ar 0.884957 1.167590 0.999247
Ar 1.357435 1.123266 0.254900
Ar 0.489131 0.837405 1.431002
Ar 0.494678 1.326743 0.045748
10
Lattice="10.0 0 0 0 10.0 0 0 0 10.0" Properties=species:S:1:pos:R:3 pbc="T T T" Time=59
Ar 0.913173 1.064530 0.541300
Ar 0.523588 1.261228 0.491962
Ar 0.944643 1.187461 0.810706
Ar 0.962412 0.519658 0.199403
Ar 1.268520 0.268900 0.897742
Ar 1.061741 0.931281 0.451105
Ar 0.892088 1.176471 1.004154
Ar 1.363734 1.125583 0.255765
Ar 0.492940 0.842531 1.439587
Ar 0.503040 1.335439 0.046022
10
Lattice="10.0 0 0 0 10.0 0 0 0 10.0" Properties=species:S:1:pos:R:3 pbc="T T T" Time=60
Ar 0.922687 1.068598 0.549619
Ar 0.527819 1.266295 0.498624
Ar 0.952271 1.193440 0.812019
Ar 0.971894 0.527480 0.201437
Ar 1.276042 0.271517 0.899542
Ar 1.065149 0.931517 0.454515
Ar 0.899219 1.185352 1.009061
Ar 1.370032 1.127899 0.256630
Ar 0.496749 0.847656 1.448172
Ar 0.511402 1.344135 0.046297
10
Lattice="10.0 0 0 0 10.0 0 0 0 10.0" Properties=species:S:1:pos:R:3 pbc="T T T" Time=61
Ar 0.932201 1.072666 0.557938
Ar 0.532050 1.271361 0.505285
Ar 0.959899 1.199419 0.813332
Ar 0.981376 0.535302 0.203470
Ar 1.283565 0.274133 0.901341
Ar 1.068557 0.931754 0.457924
Ar 0.906349 1.194234 1.013968
Ar 1.376331 1.130216 0.257495
Ar 0.500559 0.852781 1.456756
Ar 0.519764 1.352831 0.046572
10
Lattice="10.0 0 0 0 10.0 0 0 0 10.0" Properties=species:S:1:pos:R:3 pbc="T T T" Time=62
Ar 0.941715 1.076733 0.566257
Ar 0.536281 1.276428 0.511947
Ar 0.967527 1.205399 0.814645
Ar 0.990859 0.543124 0.205503
Ar 1.291087 0.276750 0.903141
Ar 1.071965 0.931990 0.461334
Ar 0.913480 1.203115 1.018875
Ar 1.382629 1.132532 0.258361
Ar 0.504368 0.857906 1.465341
Ar 0.528126 1.361527 0.046846
10
Lattice="10.0 0 0 0 10.0 0 0 0 10.0" Properties=species:S:1:pos:R:3 pbc="T T T" Time=63
Ar 0.951230 1.080801 0.574576
Ar 0.540512 1.281495 0.518608
Ar 0.975155 1.211378 0.815958
Ar 1.000341 0.550946 0.207537
Ar 1.298609 0.279366 0.904940
Ar 1.075373 0.932227 0.464743
Ar 0.920611 1.211997 1.023782
Ar 1.388928 1.134849 0.259226
Ar 0.508177 0.863032 1.473926
Ar 0.536488 1.370223 0.047121
10
Lattice="10.0 0 0 0 10.0 0 0 0 10.0" Properties=species:S:1:pos:R:3 pbc="T T T" Time=64
Ar 0.960744 1.084868 0.582895
Ar 0.544743 1.286561 0.525270
Ar 0.982783 1.217357 0.817271
Ar 1.009823 0.558768 0.209570
Ar 1.306131 0.281983 0.906739
Ar 1.078781 0.932463 0.468153
Ar 0.927741 1.220878 1.028689
Ar 1.395226 1.137165 0.260091
Ar 0.511986 0.868157 1.482511
Ar 0.544850 1.378919 0.047395
10
Lattice="10.0 0 0 0 10.0 0 0 0 10.0" Properties=species:S:1:pos:R:3 pbc="T T T" Time=65
Ar 0.970258 1.088936 0.591214
Ar 0.548975 1.291628 0.531932
Ar 0.990411 1.223336 0.818584
Ar 1.019305 0.566590 0.211603
Ar 1.313653 0.284599 0.908539
Ar 1.082190 0.932700 0.471563
Ar 0.934872 1.229759 1.033596
Ar 1.401525 1.139482 0.260956
Ar 0.515795 0.873282 1.491096
Ar 0.553212 1.387615 0.047670
10
Lattice="10.0 0 0 0 10.0 0 0 0 10.0" Properties=species:S:1:pos:R:3 pbc="T T T" Time=66
Ar 0.979772 1.093004 0.599533
Ar 0.553206 1.296695 0.538593
Ar 0.998039 1.229315 0.819897
Ar 1.028787 0.574412 0.213637
Ar 1.321175 0.287216 0.910338
Ar 1.085598 0.932936 0.474972
Ar 0.942002 1.238641 1.038503
Ar 1.407823 1.141798 0.261821
Ar 0.519604 0.878408 1.499681
Ar 0.561574 1.396311 0.047945
10
Lattice="10.0 0 0 0 10.0 0 0 0 10.0" Properties=species:S:1:pos:R:3 pbc="T T T" Time=67
Ar 0.989286 1.097071 0.607852
Ar 0.557437 1.301761 0.545255
Ar 1.005667 1.235294 0.821210
Ar 1.038270 0.582234 0.215670
Ar 1.328697 0.289833 0.912138
Ar 1.089006 0.933173 0.478382
Ar 0.949133 1.247522 1.043410
Ar 1.414122 1.144115 0.262687
Ar 0.523414 0.883533 1.508266
Ar 0.569936 1.405007 0.048219
10
Lattice="10.0 0 0 0 10.0 0 0 0 10.0" Properties=species:S:1:pos:R:3 pbc="T T T" Time=68
Ar 0.998800 1.101139 0.616171
Ar 0.561668 1.306828 0.551916
Ar 1.013295 1.241273 0.822523
Ar 1.047752 0.590057 0.217704
Ar 1.336219 0.292449 0.913937
Ar 1.092414 0.933409 0.481791
Ar 0.956264 1.256404 1.048317
Ar 1.420420 1.146431 0.263552
Ar 0.527223 0.888658 1.516851
Ar 0.578298 1.413703 0.048494
10
Lattice="10.0 0 0 0 10.0 0 0 0 10.0" Properties=species:S:1:pos:R:3 pbc="T T T" Time=69
Ar 1.008314 1.105206 0.624490
Ar 0.565899 1.311895 0.558578
Ar 1.020923 1.247252 0.823836
Ar 1.057234 0.597879 0.219737
Ar 1.343741 0.295066 0.915737
Ar 1.095822 0.933646 0.485201
Ar 0.963394 1.265285 1.053224
Ar 1.426719 1.148748 0.264417
Ar 0.531032 0.893784 1.525436
Ar 0.586659 1.422399 0.048768
10
Lattice="10.0 0 0 0 10.0 0 0 0 10.0" Properties=species:S:1:pos:R:3 pbc="T T T" Time=70
Ar 1.017828 1.109274 0.632809
Ar 0.570130 1.316961 0.565239
Ar 1.028551 1.253231 0.825149
Ar 1.066716 0.605701 0.221770
Ar 1.351263 0.297682 0.917536
Ar 1.099230 0.933882 0.488611
Ar 0.970525 1.274166 1.058132
Ar 1.433017 1.151064 0.265282
Ar 0.534841 0.898909 1.534020
Ar 0.595021 1.431095 0.049043
10
Lattice="10.0 0 0 0 10.0 0 0 0 10.0" Properties=species:S:1:pos:R:3 pbc="T T T" Time=71
Ar 1.027342 1.113341 0.641128
Ar 0.574361 1.322028 0.571901
Ar 1.036179 1.259210 0.826462
Ar 1.076198 0.613523 0.223804
Ar 1.358785 0.300299 0.919335
Ar 1.102638 0.934118 0.492020
Ar 0.977656 1.283048 1.063039
Ar 1.439316 1.153381 0.266147
Ar 0.538650 0.904034 1.542605
Ar 0.603383 1.439791 0.049318
10
Lattice="10.0 0 0 0 10.0 0 0 0 10.0" Properties=species:S:1:pos:R:3 pbc="T T T" Time=72
Ar 1.036856 1.117409 0.649447
Ar 0.578593 1.327094 0.578562
Ar 1.043807 1.265189 0.827775
Ar 1.085681 0.621345 0.225837
Ar 1.366308 0.302915 0.921135
Ar 1.106046 0.934355 0.495430
Ar 0.984786 1.291929 1.067946
Ar 1.445614 1.155697 0.267013
Ar 0.542460 0.909160 1.551190
Ar 0.611745 1.448487 0.049592
10
Lattice="10.0 0 0 0 10.0 0 0 0 10.0" Properties=species:S:1:pos:R:3 pbc="T T T" Time=73
Ar 1.046370 1.121477 0.657766
Ar 0.582824 1.332161 0.585224
Ar 1.051435 1.271168 0.829088
Ar 1.095163 0.629167 0.227870
Ar 1.373830 0.305532 0.922934
Ar 1.109454 0.934591 0.498839
Ar 0.991917 1.300810 1.072853
Ar 1.451913 1.158014 0.267878
Ar 0.546269 0.914285 1.559775
Ar 0.620107 1.457183 0.049867
10
Lattice="10.0 0 0 0 10.0 0 0 0 10.0" Properties=species:S:1:pos:R:3 pbc="T T T" Time=74
Ar 1.055884 1.125544 0.666085
Ar 0.587055 1.337228 0.591885
Ar 1.059063 1.277147 0.830401
Ar 1.104645 0.636989 0.229904
Ar 1.381352 0.308149 0.924734
Ar 1.112862 0.934828 0.502249
Ar 0.999047 1.309692 1.077760
Ar 1.458211 1.160330 0.268743
Ar 0.550078 0.919410 1.568360
Ar 0.628469 1.465879 0.050142
10
Lattice="10.0 0 0 0 10.0 0 0 0 10.0" Properties=species:S:1:pos:R:3 pbc="T T T" Time=75
Ar 1.065398 1.129612 0.674404
Ar 0.591286 1.342294 0.598547
Ar 1.066691 1.283127 0.831714
Ar 1.114127 0.644811 0.231937
Ar 1.388874 0.310765 0.926533
Ar 1.116270 0.935064 0.505659
Ar 1.006178 1.318573 1.082667
Ar 1.464510 1.162647 0.269608
Ar 0.553887 0.924536 1.576945
Ar 0.636831 1.474575 0.050416
10
Lattice="10.0 0 0 0 10.0 0 0 0 10.0" Properties=species:S:1:pos:R:3 pbc="T T T" Time=76
Ar 1.074912 1.133679 0.682723
Ar 0.595517 1.347361 0.605208
Ar 1.074319 1.289106 0.833027
Ar 1.123609 0.652633 0.233970
Ar 1.396396 0.313382 0.928333
Ar 1.119678 0.935301 0.509068
Ar 1.013309 1.327455 1.087574
Ar 1.470808 1.164963 0.270474
Ar 0.557696 0.929661 1.585530
Ar 0.645193 1.483271 0.050691
10
Lattice="10.0 0 0 0 10.0 0 0 0 10.0" Properties=species:S:1:pos:R:3 pbc="T T T" Time=77
Ar 1.084426 1.137747 0.691042
Ar 0.599748 1.352428 0.611870
Ar 1.081947 1.295085 0.834340
Ar 1.133092 0.660455 0.236004
Ar 1.403918 0.315998 0.930132
Ar 1.123087 0.935537 0.512478
Ar 1.020439 1.336336 1.092481
Ar 1.477107 1.167280 0.271339
Ar 0.561505 0.934786 1.594115
Ar 0.653555 1.491967 0.050965
10
Lattice="10.0 0 0 0 10.0 0 0 0 10.0" Properties=species:S:1:pos:R:3 pbc="T T T" Time=78
Ar 1.093940 1.141815 0.699361
Ar 0.603979 1.357494 0.618532
Ar 1.089575 1.301064 0.835653
Ar 1.142574 0.668277 0.238037
Ar 1.411440 0.318615 0.931931
Ar 1.126495 0.935774 0.515887
Ar 1.027570 1.345217 1.097388
Ar 1.483405 1.169596 0.272204
Ar 0.565315 0.939912 1.602700
Ar 0.661917 1.500662 0.051240
10
Lattice="10.0 0 0 0 10.0 0 0 0 10.0" Properties=species:S:1:pos:R:3 pbc="T T T" Time=79
Ar 1.103454 1.145882 0.707680
Ar 0.608210 1.362561 0.625193
Ar 1.097203 1.307043 0.836966
Ar 1.152056 0.676099 0.240070
Ar 1.418962 0.321231 0.933731
Ar 1.129903 0.936010 0.519297
Ar 1.034701 1.354099 1.102295
Ar 1.489704 1.171913 0.273069
Ar 0.569124 0.945037 1.611285
Ar 0.670279 1.509358 0.051515
10
Lattice="10.0 0 0 0 10.0 0 0 0 10.0" Properties=species:S:1:pos:R:3 pbc="T T T" Time=80
Ar 1.112968 1.149950 0.715999
Ar 0.612442 1.367628 0.631855
Ar 1.104831 1.313022 0.838279
Ar 1.161538 0.683921 0.242104
Ar 1.426484 0.323848 0.935530
Ar 1.133311 0.936247 0.522707
Ar 1.041831 1.362980 1.107202
Ar 1.496002 1.174229 0.273934
Ar 0.572933 0.950162 1.619869
Ar 0.678641 1.518054 0.051789
10
Lattice="10.0 0 0 0 10.0 0 0 0 10.0" Properties=species:S:1:pos:R:3 pbc="T T T" Time=81
Ar 1.122482 1.154017 0.724318
Ar 0.616673 1.372694 0.638516
Ar 1.112459 1.319001 0.839592
Ar 1.171020 0.691744 0.244137
Ar 1.434006 0.326465 0.937330
Ar 1.136719 0.936483 0.526116
Ar 1.048962 1.371862 1.112109
Ar 1.502301 1.176546 0.274800
Ar 0.576742 0.955288 1.628454
Ar 0.687003 1.526750 0.052064
10
Lattice="10.0 0 0 0 10.0 0 0 0 10.0" Properties=species:S:1:pos:R:3 pbc="T T T" Time=82
Ar 1.131996 1.158085 0.732637
Ar 0.620904 1.377761 0.645178
Ar 1.120087 1.324980 0.840905
Ar 1.180503 0.699566 0.246170
Ar 1.441528 0.329081 0.939129
Ar 1.140127 0.936720 0.529526
Ar 1.056092 1.380743 1.117016
Ar 1.508599 1.178862 0.275665
Ar 0.580551 0.960413 1.637039
Ar 0.695365 1.535446 0.052339
10
Lattice="10.0 0 0 0 10.0 0 0 0 10.0" Properties=species:S:1:pos:R:3 pbc="T T T" Time=83
Ar 1.141510 1.162153 0.740956
Ar 0.625135 1.382828 0.651839
Ar 1.127715 1.330959 0.842218
Ar 1.189985 0.707388 0.248204
Ar 1.449050 0.331698 0.940928
Ar 1.143535 0.936956 0.532935
Ar 1.063223 1.389624 1.121923
Ar 1.514898 1.181179 0.276530
Ar 0.584360 0.965538 1.645624
Ar 0.703727 1.544142 0.052613
10
Lattice="10.0 0 0 0 10.0 0 0 0 10.0" Properties=species:S:1:pos:R:3 pbc="T T T" Time=84
Ar 1.151024 1.166220 0.749275
Ar 0.629366 1.387894 0.658501
Ar 1.135343 1.336938 0.843531
Ar 1.199467 0.715210 0.250237
Ar 1.456573 0.334314 0.942728
Ar 1.146943 0.937193 0.536345
Ar 1.070354 1.398506 1.126830
Ar 1.521196 1.183495 0.277395
Ar 0.588170 0.970664 1.654209
Ar 0.712089 1.552838 0.052888
10
Lattice="10.0 0 0 0 10.0 0 0 0 10.0" Properties=species:S:1:pos:R:3 pbc="T T T" Time=85
Ar 1.160539 1.170288 0.757594
Ar 0.633597 1.392961 0.665162
Ar 1.142971 1.342917 0.844844
Ar 1.208949 0.723032 0.252271
Ar 1.464095 0.336931 0.944527
Ar 1.150351 0.937429 0.539755
Ar 1.077484 1.407387 1.131737
Ar 1.527495 1.185812 0.278260
Ar 0.591979 0.975789 1.662794
Ar 0.720451 1.561534 0.053162
10
Lattice="10.0 0 0 0 10.0 0 0 0 10.0" Properties=species:S:1:pos:R:3 pbc="T T T" Time=86
Ar 1.170053 1.174355 0.765913
Ar 0.637828 1.398027 0.671824
Ar 1.150599 1.348896 0.846157
Ar 1.218431 0.730854 0.254304
Ar 1.471617 0.339547 0.946327
Ar 1.153759 0.937666 0.543164
Ar 1.084615 1.416269 1.136644
Ar 1.533793 1.188128 0.279126
Ar 0.595788 0.980914 1.671379
Ar 0.728813 1.570230 0.053437
10
Lattice="10.0 0 0 0 10.0 0 0 0 10.0" Properties=species:S:1:pos:R:3 pbc="T T T" Time=87
Ar 1.179567 1.178423 0.774232
Ar 0.642060 1.403094 0.678485
Ar 1.158227 1.354875 0.847470
Ar 1.227914 0.738676 0.256337
Ar 1.479139 0.342164 0.948126
Ar 1.157167 0.937902 0.546574
Ar 1.091746 1.425150 1.141551
Ar 1.540092 1.190445 0.279991
Ar 0.599597 0.986040 1.679964
Ar 0.737175 1.578926 0.053712
10
Lattice="10.0 0 0 0 10.0 0 0 0 10.0" Properties=species:S:1:pos:R:3 pbc="T T T" Time=88
Ar 1.189081 1.182491 0.782551
Ar 0.646291 1.408161 0.685147
Ar 1.165855 1.360855 0.848783
Ar 1.237396 0.746498 0.258371
Ar 1.486661 0.344781 0.949926
Ar 1.160575 0.938139 0.549983
Ar 1.098876 1.434031 1.146458
Ar 1.546390 1.192761 0.280856
Ar 0.603406 0.991165 1.688549
Ar 0.745537 1.587622 0.053986
10
Lattice="10.0 0 0 0 10.0 0 0 0 10.0" Properties=species:S:1:pos:R:3 pbc="T T T" Time=89
Ar 1.198595 1.186558 0.790870
Ar 0.650522 1.413227 0.691809
Ar 1.173483 1.366834 0.850096
Ar 1.246878 0.754320 0.260404
Ar 1.494183 0.347397 0.951725
Ar 1.163984 0.938375 0.553393
Ar 1.106007 1.442913 1.151365
Ar 1.552689 1.195077 0.281721
Ar 0.607216 0.996290 1.697133
Ar 0.753899 1.596318 0.054261
10
Lattice="10.0 0 0 0 10.0 0 0 0 10.0" Properties=species:S:1:pos:R:3 pbc="T T T" Time=90
Ar 1.208109 1.190626 0.799189
Ar 0.654753 1.418294 0.698470
Ar 1.181111 1.372813 0.851409
Ar 1.256360 0.762142 0.262437
Ar 1.501705 0.350014 0.953524
Ar 1.167392 0.938611 0.556803
Ar 1.113137 1.451794 1.156272
Ar 1.558987 1.197394 0.282586
Ar 0.611025 1.001415 1.705718
Ar 0.762261 1.605014 0.054535
10
Lattice="10.0 0 0 0 10.0 0 0 0 10.0" Properties=species:S:1:pos:R:3 pbc="T T T" Time=91
Ar 1.217623 1.194693 0.807508
Ar 0.658984 1.423361 0.705132
Ar 1.188739 1.378792 0.852722
Ar 1.265842 0.769964 0.264471
Ar 1.509227 0.352630 0.955324
Ar 1.170800 0.938848 0.560212
Ar 1.120268 1.460676 1.161180
Ar 1.565286 1.199710 0.283452
Ar 0.614834 1.006541 1.714303
Ar 0.770623 1.613710 0.054810
10
Lattice="10.0 0 0 0 10.0 0 0 0 10.0" Properties=species:S:1:pos:R:3 pbc="T T T" Time=92
Ar 1.227137 1.198761 0.815827
Ar 0.663215 1.428427 0.711793
Ar 1.196367 1.384771 0.854035
Ar 1.275325 0.777786 0.266504
Ar 1.516749 0.355247 0.957123
Ar 1.174208 0.939084 0.563622
Ar 1.127399 1.469557 1.166087
Ar 1.571584 1.202027 0.284317
Ar 0.618643 1.011666 1.722888
Ar 0.778985 1.622406 0.055085
10
Lattice="10.0 0 0 0 10.0 0 0 0 10.0" Properties=species:S:1:pos:R:3 pbc="T T T" Time=93
Ar 1.236651 1.202829 0.824146
Ar 0.667446 1.433494 0.718455
Ar 1.203995 1.390750 0.855348
Ar 1.284807 0.785608 0.268537
Ar 1.524271 0.357863 0.958923
Ar 1.177616 0.939321 0.567031
Ar 1.134529 1.478438 1.170994
Ar 1.577883 1.204343 0.285182
Ar 0.622452 1.016791 1.731473
Ar 0.787347 1.631102 0.055359
10
Lattice="10.0 0 0 0 10.0 0 0 0 10.0" Properties=species:S:1:pos:R:3 pbc="T T T" Time=94
Ar 1.246165 1.206896 0.832465
Ar 0.671678 1.438561 0.725116
Ar 1.211623 1.396729 0.856661
Ar 1.294289 0.793431 0.270571
Ar 1.531793 0.360480 0.960722
Ar 1.181024 0.939557 0.570441
Ar 1.141660 1.487320 1.175901
Ar 1.584181 1.206660 0.286047
Ar 0.626261 1.021917 1.740058
Ar 0.795709 1.639798 0.055634
10
Lattice="10.0 0 0 0 10.0 0 0 0 10.0" Properties=species:S:1:pos:R:3 pbc="T T T" Time=95
Ar 1.255679 1.210964 0.840784
Ar 0.675909 1.443627 0.731778
Ar 1.219251 1.402708 0.857974
Ar 1.303771 0.801253 0.272604
Ar 1.539315 0.363097 0.962522
Ar 1.184432 0.939794 0.573851
Ar 1.148791 1.496201 1.180808
Ar 1.590480 1.208976 0.286912
Ar 0.630071 1.027042 1.748643
Ar 0.804071 1.648494 0.055909
10
Lattice="10.0 0 0 0 10.0 0 0 0 10.0" Properties=species:S:1:pos:R:3 pbc="T T T" Time=96
Ar 1.265193 1.215031 0.849103
Ar 0.680140 1.448694 0.738439
Ar 1.226879 1.408687 0.859287
Ar 1.313254 0.809075 0.274637
Ar 1.546838 0.365713 0.964321
Ar 1.187840 0.940030 0.577260
Ar 1.155921 1.505083 1.185715
Ar 1.596778 1.211293 0.287778
Ar 0.633880 1.032167 1.757228
Ar 0.812432 1.657190 0.056183
10
Lattice="10.0 0 0 0 10.0 0 0 0 10.0" Properties=species:S:1:pos:R:3 pbc="T T T" Time=97
Ar 1.274707 1.219099 0.857422
Ar 0.684371 1.453761 0.745101
Ar 1.234507 1.414666 0.860600
Ar 1.322736 0.816897 0.276671
Ar 1.554360 0.368330 0.966120
Ar 1.191248 0.940267 0.580670
Ar 1.163052 1.513964 1.190622
Ar 1.603077 1.213609 0.288643
Ar 0.637689 1.037293 1.765813
Ar 0.820794 1.665886 0.056458
10
Lattice="10.0 0 0 0 10.0 0 0 0 10.0" Properties=species:S:1:pos:R:3 pbc="T T T" Time=98
Ar 1.284221 1.223167 0.865741
Ar 0.688602 1.458827 0.751762
Ar 1.242135 1.420645 0.861913
Ar 1.332218 0.824719 0.278704
Ar 1.561882 0.370946 0.967920
Ar 1.194656 0.940503 0.584079
Ar 1.170183 1.522845 1.195529
Ar 1.609375 1.215926 0.289508
Ar 0.641498 1.042418 1.774398
Ar 0.829156 1.674582 0.056732
10
Lattice="10.0 0 0 0 10.0 0 0 0 10.0" Properties=species:S:1:pos:R:3 pbc="T T T" Time=99
Ar 1.293735 1.227234 0.874060
Ar 0.692833 1.463894 0.758424
Ar 1.249763 1.426624 0.863226
Ar 1.341700 0.832541 0.280737
Ar 1.569404 0.373563 0.969719
Ar 1.198064 0.940740 0.587489
Ar 1.177313 1.531727 1.200436
Ar 1.615674 1.218242 0.290373
Ar 0.645307 1.047543 1.782982
Ar 0.837518 1.683277 0.057007
10
Lattice="10.0 0 0 0 10.0 0 0 0 10.0" Properties=species:S:1:pos:R:3 pbc="T T T" Time=100
Ar 1.303249 1.231302 0.882379
Ar 0.697064 1.468960 0.765085
Ar 1.257390 1.432603 0.864539
Ar 1.351182 0.840363 0.282771
Ar 1.576926 0.376179 0.971519
Ar 1.201472 0.940976 0.590899
Ar 1.184444 1.540608 1.205343
Ar 1.621972 1.220559 0.291238
Ar 0.649117 1.052669 1.791567
Ar 0.845880 1.691973 0.057282
10
Lattice="10.0 0 0 0 10.0 0 0 0 10.0" Properties=species:S:1:pos:R:3 pbc="T T T" Time=101
Ar 1.312763 1.235369 0.890698
Ar 0.701295 1.474027 0.771747
Ar 1.265018 1.438583 0.865852
Ar 1.360665 0.848185 0.284804
Ar 1.584448 0.378796 0.973318
Ar 1.204881 0.941213 0.594308
Ar 1.191574 1.549489 1.210250
Ar 1.628271 1.222875 0.292104
Ar 0.652926 1.057794 1.800152
Ar 0.854242 1.700669 0.057556
10
Lattice="10.0 0 0 0 10.0 0 0 0 10.0" Properties=species:S:1:pos:R:3 pbc="T T T" Time=102
Ar 1.322277 1.239437 0.899017
Ar 0.705527 1.479094 0.778409
Ar 1.272646 1.444562 0.867165
Ar 1.370147 0.856007 0.286837
Ar 1.591970 0.381413 0.975118
Ar 1.208289 0.941449 0.597718
Ar 1.198705 1.558371 1.215157
Ar 1.634569 1.225192 0.292969
Ar 0.656735 1.062919 1.808737
Ar 0.862604 1.709365 0.057831
10
Lattice="10.0 0 0 0 10.0 0 0 0 10.0" Properties=species:S:1:pos:R:3 pbc="T T T" Time=103
Ar 1.331791 1.243504 0.907336
Ar 0.709758 1.484160 0.785070
Ar 1.280274 1.450541 0.868478
Ar 1.379629 0.863829 0.288871
Ar 1.599492 0.384029 0.976917
Ar 1.211697 0.941686 0.601127
Ar 1.205836 1.567252 1.220064
Ar 1.640868 1.227508 0.293834
Ar 0.660544 1.068045 1.817322
Ar 0.870966 1.718061 0.058105
10
Lattice="10.0 0 0 0 10.0 0 0 0 10.0" Properties=species:S:1:pos:R:3 pbc="T T T" Time=104
Ar 1.341305 1.247572 0.915655
Ar 0.713989 1.489227 0.791732
Ar 1.287902 1.456520 0.869791
Ar 1.389111 0.871651 0.290904
Ar 1.607014 0.386646 0.978716
Ar 1.215105 0.941922 0.604537
Ar 1.212966 1.576134 1.224971
Ar 1.647166 1.229825 0.294699
Ar 0.664353 1.073170 1.825907
Ar 0.879328 1.726757 0.058380
10
Lattice="10.0 0 0 0 10.0 0 0 0 10.0" Properties=species:S:1:pos:R:3 pbc="T T T" Time=105
Ar 1.350819 1.251640 0.923974
Ar 0.718220 1.494294 0.798393
Ar 1.295530 1.462499 0.871104
Ar 1.398593 0.879473 0.292938
Ar 1.614536 0.389262 0.980516
Ar 1.218513 0.942159 0.607947
Ar 1.220097 1.585015 1.229878
Ar 1.653465 1.232141 0.295564
Ar 0.668162 1.078295 1.834492
Ar 0.887690 1.735453 0.058655
10
Lattice="10.0 0 0 0 10.0 0 0 0 10.0" Properties=species:S:1:pos:R:3 pbc="T T T" Time=106
Ar 1.360333 1.255707 0.932293
Ar 0.722451 1.499360 0.805055
Ar 1.303158 1.468478 0.872417
Ar 1.408076 0.887295 0.294971
Ar 1.622058 0.391879 0.982315
Ar 1.221921 0.942395 0.611356
Ar 1.227228 1.593896 1.234785
Ar 1.659763 1.234458 0.296430
Ar 0.671972 1.083421 1.843077
Ar 0.896052 1.744149 0.058929
10
Lattice="10.0 0 0 0 10.0 0 0 0 10.0" Properties=species:S:1:pos:R:3 pbc="T T T" Time=107
Ar 1.369848 1.259775 0.940612
Ar 0.726682 1.504427 0.811716
Ar 1.310786 1.474457 0.873730
Ar 1.417558 0.895118 0.297004
Ar 1.629581 0.394495 0.984115
Ar 1.225329 0.942632 0.614766
Ar 1.234358 1.602778 1.239692
Ar 1.666062 1.236774 0.297295
Ar 0.675781 1.088546 1.851662
Ar 0.904414 1.752845 0.059204
10
Lattice="10.0 0 0 0 10.0 0 0 0 10.0" Properties=species:S:1:pos:R:3 pbc="T T T" Time=108
Ar 1.379362 1.263842 0.948931
Ar 0.730913 1.509494 0.818378
Ar 1.318414 1.480436 0.875043
Ar 1.427040 0.902940 0.299038
Ar 1.637103 0.397112 0.985914
Ar 1.228737 0.942868 0.618175
Ar 1.241489 1.611659 1.244599
Ar 1.672360 1.239091 0.298160
Ar 0.679590 1.093671 1.860246
Ar 0.912776 1.761541 0.059479
10
Lattice="10.0 0 0 0 10.0 0 0 0 10.0" Properties=species:S:1:pos:R:3 pbc="T T T" Time=109
Ar 1.388876 1.267910 0.957250
Ar 0.735145 1.514560 0.825039
Ar 1.326042 1.486415 0.876356
Ar 1.436522 0.910762 0.301071
Ar 1.644625 0.399729 0.987714
Ar 1.232145 0.943104 0.621585
Ar 1.248619 1.620541 1.249506
Ar 1.678659 1.241407 0.299025
Ar 0.683399 1.098797 1.868831
Ar 0.921138 1.770237 0.059753
10
Lattice="10.0 0 0 0 10.0 0 0 0 10.0" Properties=species:S:1:pos:R:3 pbc="T T T" Time=110
Ar 1.398390 1.271978 0.965569
Ar 0.739376 1.519627 0.831701
Ar 1.333670 1.492394 0.877669
Ar 1.446004 0.918584 0.303104
Ar 1.652147 0.402345 0.989513
Ar 1.235553 0.943341 0.624995
Ar 1.255750 1.629422 1.254413
Ar 1.684957 1.243724 0.299890
Ar 0.687208 1.103922 1.877416
Ar 0.929500 1.778933 0.060028
10
Lattice="10.0 0 0 0 10.0 0 0 0 10.0" Properties=species:S:1:pos:R:3 pbc="T T T" Time=111
Ar 1.407904 1.276045 0.973888
Ar 0.743607 1.524693 0.838362
Ar 1.341298 1.498373 0.878982
Ar 1.455487 0.926406 0.305138
Ar 1.659669 0.404962 0.991312
Ar 1.238961 0.943577 0.628404
Ar 1.262881 1.638303 1.259320
Ar 1.691256 1.246040 0.300756
Ar 0.691017 1.109047 1.886001
Ar 0.937862 1.787629 0.060302
10
Lattice="10.0 0 0 0 10.0 0 0 0 10.0" Properties=species:S:1:pos:R:3 pbc="T T T" Time=112
Ar 1.417418 1.280113 0.982207
Ar 0.747838 1.529760 0.845024
Ar 1.348926 1.504352 0.880295
Ar 1.464969 0.934228 0.307171
Ar 1.667191 0.407578 0.993112
Ar 1.242369 0.943814 0.631814
Ar 1.270011 1.647185 1.264228
Ar 1.697554 1.248357 0.301621
Ar 0.694827 1.114173 1.894586
Ar 0.946224 1.796325 0.060577
10
Lattice="10.0 0 0 0 10.0 0 0 0 10.0" Properties=species:S:1:pos:R:3 pbc="T T T" Time=113
Ar 1.426932 1.284180 0.990526
Ar 0.752069 1.534827 0.851685
Ar 1.356554 1.510331 0.881608
Ar 1.474451 0.942050 0.309204
Ar 1.674713 0.410195 0.994911
Ar 1.245778 0.944050 0.635223
Ar 1.277142 1.656066 1.269135
Ar 1.703853 1.250673 0.302486
Ar 0.698636 1.119298 1.903171
Ar 0.954586 1.805021 0.060852
10
Lattice="10.0 0 0 0 10.0 0 0 0 10.0" Properties=species:S:1:pos:R:3 pbc="T T T" Time=114
Ar 1.436446 1.288248 0.998845
Ar 0.756300 1.539893 0.858347
Ar 1.364182 1.516311 0.882921
Ar 1.483933 0.949872 0.311238
Ar 1.682235 0.412811 0.996711
Ar 1.249186 0.944287 0.638633
Ar 1.284273 1.664948 1.274042
Ar 1.710151 1.252990 0.303351
Ar 0.702445 1.124423 1.911756
Ar 0.962948 1.813717 0.061126
10
Lattice="10.0 0 0 0 10.0 0 0 0 10.0" Properties=species:S:1:pos:R:3 pbc="T T T" Time=115
Ar 1.445960 1.292316 1.007164
Ar 0.760531 1.544960 0.865009
Ar 1.371810 1.522290 0.884234
Ar 1.493415 0.957694 0.313271
Ar 1.689757 0.415428 0.998510
Ar 1.252594 0.944523 0.642043
Ar 1.291403 1.673829 1.278949
Ar 1.716450 1.255306 0.304216
Ar 0.706254 1.129549 1.920341
Ar 0.971310 1.822413 0.061401
10
Lattice="10.0 0 0 0 10.0 0 0 0 10.0" Properties=species:S:1:pos:R:3 pbc="T T T" Time=116
Ar 1.455474 1.296383 1.015483
Ar 0.764762 1.550027 0.871670
Ar 1.379438 1.528269 0.885547
Ar 1.502898 0.965516 0.315304
Ar 1.697279 0.418045 1.000310
Ar 1.256002 0.944760 0.645452
Ar 1.298534 1.682710 1.283856
Ar 1.722748 1.257623 0.305082
Ar 0.710063 1.134674 1.928926
Ar 0.979672 1.831109 0.061675
10
Lattice="10.0 0 0 0 10.0 0 0 0 10.0" Properties=species:S:1:pos:R:3 pbc="T T T" Time=117
Ar 1.464988 1.300451 1.023802
Ar 0.768994 1.555093 0.878332
Ar 1.387066 1.534248 0.886860
Ar 1.512380 0.973338 0.317338
Ar 1.704801 0.420661 1.002109
Ar 1.259410 0.944996 0.648862
Ar 1.305664 1.691592 1.288763
Ar 1.729047 1.259939 0.305947
Ar 0.713873 1.139799 1.937511
Ar 0.988034 1.839805 0.061950
10
Lattice="10.0 0 0 0 10.0 0 0 0 10.0" Properties=species:S:1:pos:R:3 pbc="T T T" Time=118
Ar 1.474502 1.304518 1.032121
Ar 0.773225 1.560160 0.884993
Ar 1.394694 1.540227 0.888173
Ar 1.521862 0.981160 0.319371
Ar 1.712323 0.423278 1.003908
Ar 1.262818 0.945233 0.652271
Ar 1.312795 1.700473 1.293670
Ar 1.735345 1.262256 0.306812
Ar 0.717682 1.144924 1.946095
Ar 0.996396 1.848501 0.062225
10
Lattice="10.0 0 0 0 10.0 0 0 0 10.0" Properties=species:S:1:pos:R:3 pbc="T T T" Time=119
Ar 1.484016 1.308586 1.040440
Ar 0.777456 1.565227 0.891655
Ar 1.402322 1.546206 0.889486
Ar 1.531344 0.988982 0.321404
Ar 1.719846 0.425894 1.005708
Ar 1.266226 0.945469 0.655681
Ar 1.319926 1.709355 1.298577
Ar 1.741644 1.264572 0.307677
Ar 0.721491 1.150050 1.954680
Ar 1.004758 1.857197 0.062499
10
Lattice="10.0 0 0 0 10.0 0 0 0 10.0" Properties=species:S:1:pos:R:3 pbc="T T T" Time=120
Ar 1.493530 1.312654 1.048759
Ar 0.781687 1.570293 0.898316
Ar 1.409950 1.552185 0.890799
Ar 1.540826 0.996805 0.323438
Ar 1.727368 0.428511 1.007507
Ar 1.269634 0.945706 0.659091
Ar 1.327056 1.718236 1.303484
Ar 1.747942 1.266889 0.308542
Ar 0.725300 1.155175 1.963265
Ar 1.013120 1.865893 0.062774
10
Lattice="10.0 0 0 0 10.0 0 0 0 10.0" Properties=species:S:1:pos:R:3 pbc="T T T" Time=121
Ar 1.503044 1.316721 1.057078
Ar 0.785918 1.575360 0.904978
Ar 1.417578 1.558164 0.892112
Ar 1.550309 1.004627 0.325471
Ar 1.734890 0.431127 1.009307
Ar 1.273042 0.945942 0.662500
Ar 1.334187 1.727117 1.308391
Ar 1.754241 1.269205 0.309408
Ar 0.729109 1.160300 1.971850
Ar 1.021482 1.874588 0.063049
10
Lattice="10.0 0 0 0 10.0 0 0 0 10.0" Properties=species:S:1:pos:R:3 pbc="T T T" Time=122
Ar 1.512558 1.320789 1.065397
Ar 0.790149 1.580427 0.911639
Ar 1.425206 1.564143 0.893425
Ar 1.559791 1.012449 0.327505
Ar 1.742412 0.433744 1.011106
Ar 1.276450 0.946179 0.665910
Ar 1.341318 1.735999 1.313298
Ar 1.760539 1.271522 0.310273
Ar 0.732918 1.165426 1.980435
Ar 1.029844 1.883284 0.063323
10
Lattice="10.0 0 0 0 10.0 0 0 0 10.0" Properties=species:S:1:pos:R:3 pbc="T T T" Time=123
Ar 1.522072 1.324856 1.073716
Ar 0.794380 1.585493 0.918301
Ar 1.432834 1.570122 0.894738
Ar 1.569273 1.020271 0.329538
Ar 1.749934 0.436361 1.012905
Ar 1.279858 0.946415 0.669319
Ar 1.348448 1.744880 1.318205
Ar 1.766838 1.273838 0.311138
Ar 0.736728 1.170551 1.989020
Ar 1.038205 1.891980 0.063598
10
Lattice="10.0 0 0 0 10.0 0 0 0 10.0" Properties=species:S:1:pos:R:3 pbc="T T T" Time=124
Ar 1.531586 1.328924 1.082035
Ar 0.798612 1.590560 0.924962
Ar 1.440462 1.576101 0.896051
Ar 1.578755 1.028093 0.331571
Ar 1.757456 0.438977 1.014705
Ar 1.283267 0.946652 0.672729
Ar 1.355579 1.753762 1.323112
Ar 1.773136 1.276155 0.312003
Ar 0.740537 1.175676 1.997605
Ar 1.046567 1.900676 0.063872
10
Lattice="10.0 0 0 0 10.0 0 0 0 10.0" Properties=species:S:1:pos:R:3 pbc="T T T" Time=125
Ar 1.541100 1.332992 1.090354
Ar 0.802843 1.595626 0.931624
Ar 1.448090 1.582080 0.897364
Ar 1.588237 1.035915 0.333605
Ar 1.764978 0.441594 1.016504
Ar 1.286675 0.946888 0.676139
Ar 1.362709 1.762643 1.328019
Ar 1.779435 1.278471 0.312868
Ar 0.744346 1.180802 2.006190
Ar 1.054929 1.909372 0.064147
10
Lattice="10.0 0 0 0 10.0 0 0 0 10.0" Properties=species:S:1:pos:R:3 pbc="T T T" Time=126
Ar 1.550614 1.337059 1.098673
Ar 0.807074 1.600693 0.938286
Ar 1.455718 1.588059 0.898677
Ar 1.597720 1.043737 0.335638
Ar 1.772500 0.444210 1.018304
Ar 1.290083 0.947125 0.679548
Ar 1.369840 1.771524 1.332926
Ar 1.785733 1.280788 0.313734
Ar 0.748155 1.185927 2.014775
Ar 1.063291 1.918068 0.064422
10
Lattice="10.0 0 0 0 10.0 0 0 0 10.0" Properties=species:S:1:pos:R:3 pbc="T T T" Time=127
Ar 1.560128 1.341127 1.106992
Ar 0.811305 1.605760 0.944947
Ar 1.463346 1.594039 0.899990
Ar 1.607202 1.051559 0.337671
Ar 1.780022 0.446827 1.020103
Ar 1.293491 0.947361 0.682958
Ar 1.376971 1.780406 1.337833
Ar 1.792032 1.283104 0.314599
Ar 0.751964 1.191052 2.023360
Ar 1.071653 1.926764 0.064696
10
Lattice="10.0 0 0 0 10.0 0 0 0 10.0" Properties=species:S:1:pos:R:3 pbc="T T T" Time=128
Ar 1.569642 1.345194 1.115311
Ar 0.815536 1.610826 0.951609
Ar 1.470974 1.600018 0.901303
Ar 1.616684 1.059381 0.339705
Ar 1.787544 0.449443 1.021903
Ar 1.296899 0.947597 0.686367
Ar 1.384101 1.789287 1.342740
Ar 1.798330 1.285421 0.315464
Ar 0.755773 1.196178 2.031944
Ar 1.080015 1.935460 0.064971
10
Lattice="10.0 0 0 0 10.0 0 0 0 10.0" Properties=species:S:1:pos:R:3 pbc="T T T" Time=129
Ar 1.579156 1.349262 1.123630
Ar 0.819767 1.615893 0.958270
Ar 1.478602 1.605997 0.902616
Ar 1.626166 1.067203 0.341738
Ar 1.795066 0.452060 1.023702
Ar 1.300307 0.947834 0.689777
Ar 1.391232 1.798168 1.347647
Ar 1.804629 1.287737 0.316329
Ar 0.759583 1.201303 2.040529
Ar 1.088377 1.944156 0.065246
10
Lattice="10.0 0 0 0 10.0 0 0 0 10.0" Properties=species:S:1:pos:R:3 pbc="T T T" Time=130
Ar 1.588671 1.353329 1.131949
Ar 0.823998 1.620960 0.964932
Ar 1.486230 1.611976 0.903929
Ar 1.635648 1.075025 0.343771
Ar 1.802588 0.454677 1.025501
Ar 1.303715 0.948070 0.693187
Ar 1.398363 1.807050 1.352554
Ar 1.810927 1.290054 0.317194
Ar 0.763392 1.206428 2.049114
Ar 1.096739 1.952852 0.065520
10
Lattice="10.0 0 0 0 10.0 0 0 0 10.0" Properties=species:S:1:pos:R:3 pbc="T T T" Time=131
Ar 1.598185 1.357397 1.140268
Ar 0.828230 1.626026 0.971593
Ar 1.493858 1.617955 0.905242
Ar 1.645131 1.082847 0.345805
Ar 1.810111 0.457293 1.027301
Ar 1.307123 0.948307 0.696596
Ar 1.405493 1.815931 1.357461
Ar 1.817226 1.292370 0.318060
Ar 0.767201 1.211554 2.057699
Ar 1.105101 1.961548 0.065795
10
Lattice="10.0 0 0 0 10.0 0 0 0 10.0" Properties=species:S:1:pos:R:3 pbc="T T T" Time=132
Ar 1.607699 1.361465 1.148587
Ar 0.832461 1.631093 0.978255
Ar 1.501486 1.623934 0.906555
Ar 1.654613 1.090669 0.347838
Ar 1.817633 0.459910 1.029100
Ar 1.310531 0.948543 0.700006
Ar 1.412624 1.824813 1.362368
Ar 1.823524 1.294686 0.318925
Ar 0.771010 1.216679 2.066284
Ar 1.113463 1.970244 0.066069
10
Lattice="10.0 0 0 0 10.0 0 0 0 10.0" Properties=species:S:1:pos:R:3 pbc="T T T" Time=133
Ar 1.617213 1.365532 1.156906
Ar 0.836692 1.636160 0.984916
Ar 1.509114 1.629913 0.907868
Ar 1.664095 1.098492 0.349871
Ar 1.825155 0.462526 1.030900
Ar 1.313939 0.948780 0.703415
Ar 1.419755 1.833694 1.367276
Ar 1.829823 1.297003 0.319790
Ar 0.774819 1.221804 2.074869
Ar 1.121825 1.978940 0.066344
10
Lattice="10.0 0 0 0 10.0 0 0 0 10.0" Properties=species:S:1:pos:R:3 pbc="T T T" Time=134
Ar 1.626727 1.369600 1.165225
Ar 0.840923 1.641226 0.991578
Ar 1.516742 1.635892 0.909181
Ar 1.673577 1.106314 0.351905
Ar 1.832677 0.465143 1.032699
Ar 1.317347 0.949016 0.706825
Ar 1.426885 1.842575 1.372183
Ar 1.836121 1.299319 0.320655
Ar 0.778629 1.226930 2.083454
Ar 1.130187 1.987636 0.066619
10
Lattice="10.0 0 0 0 10.0 0 0 0 10.0" Properties=species:S:1:pos:R:3 pbc="T T T" Time=135
Ar 1.636241 1.373667 1.173544
Ar 0.845154 1.646293 0.998239
Ar 1.524370 1.641871 0.910494
Ar 1.683059 1.114136 0.353938
Ar 1.840199 0.467759 1.034499
Ar 1.320755 0.949253 0.710235
Ar 1.434016 1.851457 1.377090
Ar 1.842420 1.301636 0.321521
Ar 0.782438 1.232055 2.092039
Ar 1.138549 1.996332 0.066893
10
Lattice="10.0 0 0 0 10.0 0 0 0 10.0" Properties=species:S:1:pos:R:3 pbc="T T T" Time=136
Ar 1.645755 1.377735 1.181863
Ar 0.849385 1.651360 1.004901
Ar 1.531998 1.647850 0.911807
Ar 1.692542 1.121958 0.355971
Ar 1.847721 0.470376 1.036298
Ar 1.324164 0.949489 0.713644
Ar 1.441146 1.860338 1.381997
Ar 1.848718 1.303952 0.322386
Ar 0.786247 1.237180 2.100624
Ar 1.146911 2.005028 0.067168
10
Lattice="10.0 0 0 0 10.0 0 0 0 10.0" Properties=species:S:1:pos:R:3 pbc="T T T" Time=137
Ar 1.655269 1.381803 1.190182
Ar 0.853616 1.656426 1.011562
Ar 1.539626 1.653829 0.913120
Ar 1.702024 1.129780 0.358005
Ar 1.855243 0.472993 1.038097
Ar 1.327572 0.949726 0.717054
Ar 1.448277 1.869220 1.386904
Ar 1.855017 1.306269 0.323251
Ar 0.790056 1.242306 2.109208
Ar 1.155273 2.013724 0.067442
10
Lattice="10.0 0 0 0 10.0 0 0 0 10.0" Properties=species:S:1:pos:R:3 pbc="T T T" Time=138
Ar 1.664783 1.385870 1.198501
Ar 0.857847 1.661493 1.018224
Ar 1.547254 1.659808 0.914433
Ar 1.711506 1.137602 0.360038
Ar 1.862765 0.475609 1.039897
Ar 1.330980 0.949962 0.720463
Ar 1.455408 1.878101 1.391811
Ar 1.861315 1.308585 0.324116
Ar 0.793865 1.247431 2.117793
Ar 1.163635 2.022420 0.067717
10
Lattice="10.0 0 0 0 10.0 0 0 0 10.0" Properties=species:S:1:pos:R:3 pbc="T T T" Time=139
Ar 1.674297 1.389938 1.206820
Ar 0.862079 1.666559 1.024886
Ar 1.554882 1.665787 0.915746
Ar 1.720988 1.145424 0.362072
Ar 1.870287 0.478226 1.041696
Ar 1.334388 0.950199 0.723873
Ar 1.462538 1.886982 1.396718
Ar 1.867614 1.310902 0.324981
Ar 0.797674 1.252556 2.126378
Ar 1.171997 2.031116 0.067992
10
Lattice="10.0 0 0 0 10.0 0 0 0 10.0" Properties=species:S:1:pos:R:3 pbc="T T T" Time=140
Ar 1.683811 1.394005 1.215139
Ar 0.866310 1.671626 1.031547
Ar 1.562510 1.671767 0.917059
Ar 1.730470 1.153246 0.364105
Ar 1.877809 0.480842 1.043496
Ar 1.337796 0.950435 0.727283
Ar 1.469669 1.895864 1.401625
Ar 1.873912 1.313218 0.325847
Ar 0.801484 1.257682 2.134963
Ar 1.180359 2.039812 0.068266
10
Lattice="10.0 0 0 0 10.0 0 0 0 10.0" Properties=species:S:1:pos:R:3 pbc="T T T" Time=141
Ar 1.693325 1.398073 1.223458
Ar 0.870541 1.676693 1.038209
Ar 1.570138 1.677746 0.918372
Ar 1.739953 1.161068 0.366138
Ar 1.885331 0.483459 1.045295
Ar 1.341204 0.950672 0.730692
Ar 1.476800 1.904745 1.406532
Ar 1.880211 1.315535 0.326712
Ar 0.805293 1.262807 2.143548
Ar 1.188721 2.048508 0.068541
10
Lattice="10.0 0 0 0 10.0 0 0 0 10.0" Properties=species:S:1:pos:R:3 pbc="T T T" Time=142
Ar 1.702839 1.402141 1.231777
Ar 0.874772 1.681759 1.044870
Ar 1.577766 1.683725 0.919685
Ar 1.749435 1.168890 0.368172
Ar 1.892853 0.486075 1.047095
Ar 1.344612 0.950908 0.734102
Ar 1.483930 1.913627 1.411439
Ar 1.886509 1.317851 0.327577
Ar 0.809102 1.267932 2.152133
Ar 1.197083 2.057203 0.068816
10
Lattice="10.0 0 0 0 10.0 0 0 0 10.0" Properties=species:S:1:pos:R:3 pbc="T T T" Time=143
Ar 1.712353 1.406208 1.240096
Ar 0.879003 1.686826 1.051532
Ar 1.585394 1.689704 0.920998
Ar 1.758917 1.176712 0.370205
Ar 1.900376 0.488692 1.048894
Ar 1.348020 0.951145 0.737511
Ar 1.491061 1.922508 1.416346
Ar 1.892808 1.320168 0.328442
Ar 0.812911 1.273057 2.160718
Ar 1.205445 2.065899 0.069090
10
Lattice="10.0 0 0 0 10.0 0 0 0 10.0" Properties=species:S:1:pos:R:3 pbc="T T T" Time=144
Ar 1.721867 1.410276 1.248415
Ar 0.883234 1.691893 1.058193
Ar 1.593022 1.695683 0.922311
Ar 1.768399 1.184534 0.372238
Ar 1.907898 0.491309 1.050693
Ar 1.351428 0.951381 0.740921
Ar 1.498191 1.931389 1.421253
Ar 1.899106 1.322484 0.329307
Ar 0.816720 1.278183 2.169303
Ar 1.213807 2.074595 0.069365
10
Lattice="10.0 0 0 0 10.0 0 0 0 10.0" Properties=species:S:1:pos:R:3 pbc="T T T" Time=145
Ar 1.731381 1.414343 1.256734
Ar 0.887465 1.696959 1.064855
Ar 1.600650 1.701662 0.923624
Ar 1.777882 1.192356 0.374272
Ar 1.915420 0.493925 1.052493
Ar 1.354836 0.951618 0.744330
Ar 1.505322 1.940271 1.426160
Ar 1.905405 1.324801 0.330173
Ar 0.820529 1.283308 2.177888
Ar 1.222169 2.083291 0.069639
10
Lattice="10.0 0 0 0 10.0 0 0 0 10.0" Properties=species:S:1:pos:R:3 pbc="T T T" Time=146
Ar 1.740895 1.418411 1.265053
Ar 0.891697 1.702026 1.071516
Ar 1.608278 1.707641 0.924937
Ar 1.787364 1.200179 0.376305
Ar 1.922942 0.496542 1.054292
Ar 1.358244 0.951854 0.747740
Ar 1.512453 1.949152 1.431067
Ar 1.911703 1.327117 0.331038
Ar 0.824339 1.288433 2.186473
Ar 1.230531 2.091987 0.069914
10
Lattice="10.0 0 0 0 10.0 0 0 0 10.0" Properties=species:S:1:pos:R:3 pbc="T T T" Time=147
Ar 1.750409 1.422479 1.273372
Ar 0.895928 1.707093 1.078178
Ar 1.615906 1.713620 0.926250
Ar 1.796846 1.208001 0.378338
Ar 1.930464 0.499158 1.056092
Ar 1.361652 0.952090 0.751150
Ar 1.519583 1.958034 1.435974
Ar 1.918002 1.329434 0.331903
Ar 0.828148 1.293559 2.195057
Ar 1.238893 2.100683 0.070189
10
Lattice="10.0 0 0 0 10.0 0 0 0 10.0" Properties=species:S:1:pos:R:3 pbc="T T T" Time=148
Ar 1.759923 1.426546 1.281691
Ar 0.900159 1.712159 1.084839
Ar 1.623534 1.719599 0.927563
Ar 1.806328 1.215823 0.380372
Ar 1.937986 0.501775 1.057891
Ar 1.365061 0.952327 0.754559
Ar 1.526714 1.966915 1.440881
Ar 1.924300 1.331750 0.332768
Ar 0.831957 1.298684 2.203642
Ar 1.247255 2.109379 0.070463
10
Lattice="10.0 0 0 0 10.0 0 0 0 10.0" Properties=species:S:1:pos:R:3 pbc="T T T" Time=149
Ar 1.769437 1.430614 1.290010
Ar 0.904390 1.717226 1.091501
Ar 1.631162 1.725578 0.928876
Ar 1.815810 1.223645 0.382405
Ar 1.945508 0.504391 1.059691
Ar 1.368469 0.952563 0.757969
Ar 1.533845 1.975796 1.445788
Ar 1.930599 1.334067 0.333633
Ar 0.835766 1.303809 2.212227
Ar 1.255617 2.118075 0.070738
10
Lattice="10.0 0 0 0 10.0 0 0 0 10.0" Properties=species:S:1:pos:R:3 pbc="T T T" Time=150
Ar 1.778951 1.434681 1.298329
Ar 0.908621 1.722293 1.098163
Ar 1.638790 1.731557 0.930189
Ar 1.825293 1.231467 0.384438
Ar 1.953030 0.507008 1.061490
Ar 1.371877 0.952800 0.761378
Ar 1.540975 1.984678 1.450695
Ar 1.936897 1.336383 0.334499
Ar 0.839575 1.308935 2.220812
Ar 1.263978 2.126771 0.071012
10
Lattice="10.0 0 0 0 10.0 0 0 0 10.0" Properties=species:S:1:pos:R:3 pbc="T T T" Time=151
Ar 1.788465 1.438749 1.306648
Ar 0.912852 1.727359 1.104824
Ar 1.646418 1.737536 0.931502
Ar 1.834775 1.239289 0.386472
Ar 1.960552 0.509625 1.063289
Ar 1.375285 0.953036 0.764788
Ar 1.548106 1.993559 1.455602
Ar 1.943196 1.338700 0.335364
Ar 0.843385 1.314060 2.229397
Ar 1.272340 2.135467 0.071287
10
Lattice="10.0 0 0 0 10.0 0 0 0 10.0" Properties=species:S:1:pos:R:3 pbc="T T T" Time=152
Ar 1.797980 1.442817 1.314967
Ar 0.917083 1.732426 1.111486
Ar 1.654046 1.743515 0.932815
Ar 1.844257 1.247111 0.388505
Ar 1.968074 0.512241 1.065089
Ar 1.378693 0.953273 0.768198
Ar 1.555236 2.002440 1.460509
Ar 1.949494 1.341016 0.336229
Ar 0.847194 1.319185 2.237982
Ar 1.280702 2.144163 0.071562
10
Lattice="10.0 0 0 0 10.0 0 0 0 10.0" Properties=species:S:1:pos:R:3 pbc="T T T" Time=153
Ar 1.807494 1.446884 1.323286
Ar 0.921314 1.737492 1.118147
Ar 1.661674 1.749495 0.934128
Ar 1.853739 1.254933 0.390538
Ar 1.975596 0.514858 1.066888
Ar 1.382101 0.953509 0.771607
Ar 1.562367 2.011322 1.465417
Ar 1.955793 1.343333 0.337094
Ar 0.851003 1.324311 2.246567
Ar 1.289064 2.152859 0.071836
10
Lattice="10.0 0 0 0 10.0 0 0 0 10.0" Properties=species:S:1:pos:R:3 pbc="T T T" Time=154
Ar 1.817008 1.450952 1.331605
Ar 0.925546 1.742559 1.124809
Ar 1.669302 1.755474 0.935441
Ar 1.863221 1.262755 0.392572
Ar 1.983119 0.517474 1.068688
Ar 1.385509 0.953746 0.775017
Ar 1.569498 2.020203 1.470324
Ar 1.962091 1.345649 0.337959
Ar 0.854812 1.329436 2.255152
Ar 1.297426 2.161555 0.072111
10
Lattice="10.0 0 0 0 10.0 0 0 0 10.0" Properties=species:S:1:pos:R:3 pbc="T T T" Time=155
Ar 1.826522 1.455019 1.339924
Ar 0.929777 1.747626 1.131470
Ar 1.676930 1.761453 0.936754
Ar 1.872704 1.270577 0.394605
Ar 1.990641 0.520091 1.070487
Ar 1.388917 0.953982 0.778426
Ar 1.576628 2.029085 1.475231
Ar 1.968390 1.347966 0.338825
Ar 0.858621 1.334561 2.263737
Ar 1.305788 2.170251 0.072386
10
Lattice="10.0 0 0 0 10.0 0 0 0 10.0" Properties=species:S:1:pos:R:3 pbc="T T T" Time=156
Ar 1.836036 1.459087 1.348243
Ar 0.934008 1.752692 1.138132
Ar 1.684558 1.767432 0.938067
Ar 1.882186 1.278399 0.396639
Ar 1.998163 0.522707 1.072286
Ar 1.392325 0.954219 0.781836
Ar 1.583759 2.037966 1.480138
Ar 1.974688 1.350282 0.339690
Ar 0.862430 1.339687 2.272321
Ar 1.314150 2.178947 0.072660
10
Lattice="10.0 0 0 0 10.0 0 0 0 10.0" Properties=species:S:1:pos:R:3 pbc="T T T" Time=157
Ar 1.845550 1.463154 1.356562
Ar 0.938239 1.757759 1.144793
Ar 1.692186 1.773411 0.939380
Ar 1.891668 1.286221 0.398672
Ar 2.005685 0.525324 1.074086
Ar 1.395733 0.954455 0.785246
Ar 1.590890 2.046847 1.485045
Ar 1.980987 1.352599 0.340555
Ar 0.866240 1.344812 2.280906
Ar 1.322512 2.187643 0.072935
10
Lattice="10.0 0 0 0 10.0 0 0 0 10.0" Properties=species:S:1:pos:R:3 pbc="T T T" Time=158
Ar 1.855064 1.467222 1.364881
Ar 0.942470 1.762826 1.151455
Ar 1.699814 1.779390 0.940693
Ar 1.901150 1.294043 0.400705
Ar 2.013207 0.527941 1.075885
Ar 1.399141 0.954692 0.788655
Ar 1.598020 2.055729 1.489952
Ar 1.987285 1.354915 0.341420
Ar 0.870049 1.349937 2.289491
Ar 1.330874 2.196339 0.073209
10
Lattice="10.0 0 0 0 10.0 0 0 0 10.0" Properties=species:S:1:pos:R:3 pbc="T T T" Time=159
Ar 1.864578 1.471290 1.373200
Ar 0.946701 1.767892 1.158116
Ar 1.707442 1.785369 0.942006
Ar 1.910632 1.301866 0.402739
Ar 2.020729 0.530557 1.077685
Ar 1.402549 0.954928 0.792065
Ar 1.605151 2.064610 1.494859
Ar 1.993584 1.357232 0.342285
Ar 0.873858 1.355063 2.298076
Ar 1.339236 2.205035 0.073484
10
Lattice="10.0 0 0 0 10.0 0 0 0 10.0" Properties=species:S:1:pos:R:3 pbc="T T T" Time=160
Ar 1.874092 1.475357 1.381519
Ar 0.950932 1.772959 1.164778
Ar 1.715070 1.791348 0.943319
Ar 1.920115 1.309688 0.404772
Ar 2.028251 0.533174 1.079484
Ar 1.405958 0.955165 0.795474
Ar 1.612281 2.073492 1.499766
Ar 1.999882 1.359548 0.343151
Ar 0.877667 1.360188 2.306661
Ar 1.347598 2.213731 0.073759
10
Lattice="10.0 0 0 0 10.0 0 0 0 10.0" Properties=species:S:1:pos:R:3 pbc="T T T" Time=161
Ar 1.883606 1.479425 1.389838
Ar 0.955164 1.778026 1.171439
Ar 1.722697 1.797327 0.944632
Ar 1.929597 1.317510 0.406805
Ar 2.035773 0.535790 1.081284
Ar 1.409366 0.955401 0.798884
Ar 1.619412 2.082373 1.504673
Ar 2.006181 1.361865 0.344016
Ar 0.881476 1.365313 2.315246
Ar 1.355960 2.222427 0.074033
10
Lattice="10.0 0 0 0 10.0 0 0 0 10.0" Properties=species:S:1:pos:R:3 pbc="T T T" Time=162
Ar 1.893120 1.483492 1.398157
Ar 0.959395 1.783092 1.178101
Ar 1.730325 1.803306 0.945945
Ar 1.939079 1.325332 0.408839
Ar 2.043295 0.538407 1.083083
Ar 1.412774 0.955638 0.802294
Ar 1.626543 2.091254 1.509580
Ar 2.012479 1.364181 0.344881
Ar 0.885286 1.370439 2.323831
Ar 1.364322 2.231123 0.074308
10
Lattice="10.0 0 0 0 10.0 0 0 0 10.0" Properties=species:S:1:pos:R:3 pbc="T T T" Time=163
Ar 1.902634 1.487560 1.406476
Ar 0.963626 1.788159 1.184763
Ar 1.737953 1.809285 0.947258
Ar 1.948561 1.333154 0.410872
Ar 2.050817 0.541023 1.084882
Ar 1.416182 0.955874 0.805703
Ar 1.633673 2.100136 1.514487
Ar 2.018778 1.366498 0.345746
Ar 0.889095 1.375564 2.332416
Ar 1.372684 2.239818 0.074583
10
Lattice="10.0 0 0 0 10.0 0 0 0 10.0" Properties=species:S:1:pos:R:3 pbc="T T T" Time=164
Ar 1.912148 1.491628 1.414795
Ar 0.967857 1.793226 1.191424
Ar 1.745581 1.815264 0.948571
Ar 1.958043 1.340976 0.412905
Ar 2.058339 0.543640 1.086682
Ar 1.419590 0.956111 0.809113
Ar 1.640804 2.109017 1.519394
Ar 2.025076 1.368814 0.346611
Ar 0.892904 1.380689 2.341001
Ar 1.381046 2.248514 0.074857
10
Lattice="10.0 0 0 0 10.0 0 0 0 10.0" Properties=species:S:1:pos:R:3 pbc="T T T" Time=165
Ar 1.921662 1.495695 1.423114
Ar 0.972088 1.798292 1.198086
Ar 1.753209 1.821243 0.949884
Ar 1.967526 1.348798 0.414939
Ar 2.065861 0.546257 1.088481
Ar 1.422998 0.956347 0.812522
Ar 1.647935 2.117899 1.524301
Ar 2.031375 1.371131 0.347477
Ar 0.896713 1.385815 2.349586
Ar 1.389408 2.257210 0.075132
10
Lattice="10.0 0 0 0 10.0 0 0 0 10.0" Properties=species:S:1:pos:R:3 pbc="T T T" Time=166
Ar 1.931176 1.499763 1.431433
Ar 0.976319 1.803359 1.204747
Ar 1.760837 1.827223 0.951197
Ar 1.977008 1.356620 0.416972
Ar 2.073384 0.548873 1.090281
Ar 1.426406 0.956583 0.815932
Ar 1.655065 2.126780 1.529208
Ar 2.037673 1.373447 0.348342
Ar 0.900522 1.390940 2.358170
Ar 1.397770 2.265906 0.075406
10
Lattice="10.0 0 0 0 10.0 0 0 0 10.0" Properties=species:S:1:pos:R:3 pbc="T T T" Time=167
Ar 1.940690 1.503830 1.439752
Ar 0.980550 1.808425 1.211409
Ar 1.768465 1.833202 0.952510
Ar 1.986490 1.364442 0.419005
Ar 2.080906 0.551490 1.092080
Ar 1.429814 0.956820 0.819342
Ar 1.662196 2.135661 1.534115
Ar 2.043972 1.375764 0.349207
Ar 0.904331 1.396065 2.366755
Ar 1.406132 2.274602 0.075681
10
Lattice="10.0 0 0 0 10.0 0 0 0 10.0" Properties=species:S:1:pos:R:3 pbc="T T T" Time=168
Ar 1.950204 1.507898 1.448071
Ar 0.984782 1.813492 1.218070
Ar 1.776093 1.839181 0.953823
Ar 1.995972 1.372264 0.421039
Ar 2.088428 0.554106 1.093880
Ar 1.433222 0.957056 0.822751
Ar 1.669327 2.144543 1.539022
Ar 2.050270 1.378080 0.350072
Ar 0.908141 1.401191 2.375340
Ar 1.414494 2.283298 0.075956
10
Lattice="10.0 0 0 0 10.0 0 0 0 10.0" Properties=species:S:1:pos:R:3 pbc="T T T" Time=169
Ar 1.959718 1.511966 1.456390
Ar 0.989013 1.818559 1.224732
Ar 1.783721 1.845160 0.955136
Ar 2.005454 1.380086 0.423072
Ar 2.095950 0.556723 1.095679
Ar 1.436630 0.957293 0.826161
Ar 1.676457 2.153424 1.543929
Ar 2.056569 1.380397 0.350937
Ar 0.911950 1.406316 2.383925
Ar 1.422856 2.291994 0.076230
10
Lattice="10.0 0 0 0 10.0 0 0 0 10.0" Properties=species:S:1:pos:R:3 pbc="T T T" Time=170
Ar 1.969232 1.516033 1.464709
Ar 0.993244 1.823625 1.231393
Ar 1.791349 1.851139 0.956449
Ar 2.014937 1.387908 0.425105
Ar 2.103472 0.559339 1.097478
Ar 1.440038 0.957529 0.829570
Ar 1.683588 2.162306 1.548836
Ar 2.062867 1.382713 0.351803
Ar 0.915759 1.411441 2.392510
Ar 1.431218 2.300690 0.076505
10
Lattice="10.0 0 0 0 10.0 0 0 0 10.0" Properties=species:S:1:pos:R:3 pbc="T T T" Time=171
Ar 1.978746 1.520101 1.473028
Ar 0.997475 1.828692 1.238055
Ar 1.798977 1.857118 0.957762
Ar 2.024419 1.395730 0.427139
Ar 2.110994 0.561956 1.099278
Ar 1.443446 0.957766 0.832980
Ar 1.690718 2.171187 1.553743
Ar 2.069166 1.385030 0.352668
Ar 0.919568 1.416566 2.401095
Ar 1.439580 2.309386 0.076779
10
Lattice="10.0 0 0 0 10.0 0 0 0 10.0" Properties=species:S:1:pos:R:3 pbc="T T T" Time=172
Ar 1.988260 1.524168 1.481347
Ar 1.001706 1.833759 1.244716
Ar 1.806605 1.863097 0.959075
Ar 2.033901 1.403553 0.429172
Ar 2.118516 0.564573 1.101077
Ar 1.446855 0.958002 0.836390
Ar 1.697849 2.180068 1.558650
Ar 2.075464 1.387346 0.353533
Ar 0.923377 1.421692 2.409680
Ar 1.447942 2.318082 0.077054
10
Lattice="10.0 0 0 0 10.0 0 0 0 10.0" Properties=species:S:1:pos:R:3 pbc="T T T" Time=173
Ar 1.997774 1.528236 1.489666
Ar 1.005937 1.838825 1.251378
Ar 1.814233 1.869076 0.960388
Ar 2.043383 1.411375 0.431206
Ar 2.126038 0.567189 1.102877
Ar 1.450263 0.958239 0.839799
Ar 1.704980 2.188950 1.563557
Ar 2.081763 1.389663 0.354398
Ar 0.927186 1.426817 2.418265
Ar 1.456304 2.326778 0.077329
10
Lattice="10.0 0 0 0 10.0 0 0 0 10.0" Properties=species:S:1:pos:R:3 pbc="T T T" Time=174
Ar 2.007288 1.532304 1.497985
Ar 1.010168 1.843892 1.258040
Ar 1.821861 1.875055 0.961701
Ar 2.052865 1.419197 0.433239
Ar 2.133560 0.569806 1.104676
Ar 1.453671 0.958475 0.843209
Ar 1.712110 2.197831 1.568465
Ar 2.088061 1.391979 0.355263
Ar 0.930996 1.431942 2.426850
Ar 1.464666 2.335474 0.077603
10
Lattice="10.0 0 0 0 10.0 0 0 0 10.0" Properties=species:S:1:pos:R:3 pbc="T T T" Time=175
Ar 2.016803 1.536371 1.506304
Ar 1.014399 1.848959 1.264701
Ar 1.829489 1.881034 0.963014
Ar 2.062348 1.427019 0.435272
Ar 2.141082 0.572422 1.106476
Ar 1.457079 0.958712 0.846618
Ar 1.719241 2.206713 1.573372
Ar 2.094360 1.394295 0.356129
Ar 0.934805 1.437068 2.435434
Ar 1.473028 2.344170 0.077878
10
Lattice="10.0 0 0 0 10.0 0 0 0 10.0" Properties=species:S:1:pos:R:3 pbc="T T T" Time=176
Ar 2.026317 1.540439 1.514623
Ar 1.018631 1.854025 1.271363
Ar 1.837117 1.887013 0.964327
Ar 2.071830 1.434841 0.437306
Ar 2.148604 0.575039 1.108275
Ar 1.460487 0.958948 0.850028
Ar 1.726372 2.215594 1.578279
Ar 2.100658 1.396612 0.356994
Ar 0.938614 1.442193 2.444019
Ar 1.481390 2.352866 0.078153
10
Lattice="10.0 0 0 0 10.0 0 0 0 10.0" Properties=species:S:1:pos:R:3 pbc="T T T" Time=177
Ar 2.035831 1.544506 1.522942
Ar 1.022862 1.859092 1.278024
Ar 1.844745 1.892992 0.965640
Ar 2.081312 1.442663 0.439339
Ar 2.156126 0.577655 1.110074
Ar 1.463895 0.959185 0.853438
Ar 1.733502 2.224475 1.583186
Ar 2.106957 1.398928 0.357859
Ar 0.942423 1.447318 2.452604
Ar 1.489751 2.361562 0.078427
10
Lattice="10.0 0 0 0 10.0 0 0 0 10.0" Properties=species:S:1:pos:R:3 pbc="T T T" Time=178
Ar 2.045345 1.548574 1.531261
Ar 1.027093 1.864159 1.284686
Ar 1.852373 1.898971 0.966953
Ar 2.090794 1.450485 0.441372
Ar 2.163649 0.580272 1.111874
Ar 1.467303 0.959421 0.856847
Ar 1.740633 2.233357 1.588093
Ar 2.113255 1.401245 0.358724
Ar 0.946232 1.452444 2.461189
Ar 1.498113 2.370258 0.078702
10
Lattice="10.0 0 0 0 10.0 0 0 0 10.0" Properties=species:S:1:pos:R:3 pbc="T T T" Time=179
Ar 2.054859 1.552642 1.539580
Ar 1.031324 1.869225 1.291347
Ar 1.860001 1.904951 0.968266
Ar 2.100276 1.458307 0.443406
Ar 2.171171 0.582888 1.113673
Ar 1.470711 0.959658 0.860257
Ar 1.747763 2.242238 1.593000
Ar 2.119554 1.403561 0.359589
Ar 0.950042 1.457569 2.469774
Ar 1.506475 2.378954 0.078976
10
Lattice="10.0 0 0 0 10.0 0 0 0 10.0" Properties=species:S:1:pos:R:3 pbc="T T T" Time=180
Ar 2.064373 1.556709 1.547899
Ar 1.035555 1.874292 1.298009
Ar 1.867629 1.910930 0.969579
Ar 2.109759 1.466129 0.445439
Ar 2.178693 0.585505 1.115473
Ar 1.474119 0.959894 0.863666
Ar 1.754894 2.251119 1.597907
Ar 2.125852 1.405878 0.360455
Ar 0.953851 1.462694 2.478359
Ar 1.514837 2.387650 0.079251
10
Lattice="10.0 0 0 0 10.0 0 0 0 10.0" Properties=species:S:1:pos:R:3 pbc="T T T" Time=181
Ar 2.073887 1.560777 1.556218
Ar 1.039786 1.879358 1.304670
Ar 1.875257 1.916909 0.970892
Ar 2.119241 1.473951 0.447472
Ar 2.186215 0.588122 1.117272
Ar 1.477527 0.960131 0.867076
Ar 1.762025 2.260001 1.602814
Ar 2.132151 1.408194 0.361320
Ar 0.957660 1.467820 2.486944
Ar 1.523199 2.396346 0.079526
10
Lattice="10.0 0 0 0 10.0 0 0 0 10.0" Properties=species:S:1:pos:R:3 pbc="T T T" Time=182
Ar 2.083401 1.564844 1.564537
Ar 1.044017 1.884425 1.311332
Ar 1.882885 1.922888 0.972205
Ar 2.128723 1.481773 0.449506
Ar 2.193737 0.590738 1.119072
Ar 1.480935 0.960367 0.870486
Ar 1.769155 2.268882 1.607721
Ar 2.138449 1.410511 0.362185
Ar 0.961469 1.472945 2.495529
Ar 1.531561 2.405042 0.079800
10
Lattice="10.0 0 0 0 10.0 0 0 0 10.0" Properties=species:S:1:pos:R:3 pbc="T T T" Time=183
Ar 2.092915 1.568912 1.572856
Ar 1.048249 1.889492 1.317993
Ar 1.890513 1.928867 0.973518
Ar 2.138205 1.489595 0.451539
Ar 2.201259 0.593355 1.120871
Ar 1.484343 0.960604 0.873895
Ar 1.776286 2.277764 1.612628
Ar 2.144748 1.412827 0.363050
Ar 0.965278 1.478070 2.504114
Ar 1.539923 2.413738 0.080075
10
Lattice="10.0 0 0 0 10.0 0 0 0 10.0" Properties=species:S:1:pos:R:3 pbc="T T T" Time=184
Ar 2.102429 1.572979 1.581175
Ar 1.052480 1.894558 1.324655
Ar 1.898141 1.934846 0.974831
Ar 2.147687 1.497417 0.453572
Ar 2.208781 0.595971 1.122670
Ar 1.487752 0.960840 0.877305
Ar 1.783417 2.286645 1.617535
Ar 2.151046 1.415144 0.363915
Ar 0.969087 1.483196 2.512699
Ar 1.548285 2.422434 0.080349
10
Lattice="10.0 0 0 0 10.0 0 0 0 10.0" Properties=species:S:1:pos:R:3 pbc="T T T" Time=185
Ar 2.111943 1.577047 1.589494
Ar 1.056711 1.899625 1.331316
Ar 1.905769 1.940825 0.976144
Ar 2.157170 1.505240 0.455606
Ar 2.216303 0.598588 1.124470
Ar 1.491160 0.961076 0.880714
Ar 1.790547 2.295526 1.622442
Ar 2.157345 1.417460 0.364781
Ar 0.972897 1.488321 2.521283
Ar 1.556647 2.431129 0.080624
10
Lattice="10.0 0 0 0 10.0 0 0 0 10.0" Properties=species:S:1:pos:R:3 pbc="T T T" Time=186
Ar 2.121457 1.581115 1.597813
Ar 1.060942 1.904692 1.337978
Ar 1.913397 1.946804 0.977457
Ar 2.166652 1.513062 0.457639
Ar 2.223825 0.601204 1.126269
Ar 1.494568 0.961313 0.884124
Ar 1.797678 2.304408 1.627349
Ar 2.163643 1.419777 0.365646
Ar 0.976706 1.493446 2.529868
Ar 1.565009 2.439825 0.080899
10
Lattice="10.0 0 0 0 10.0 0 0 0 10.0" Properties=species:S:1:pos:R:3 pbc="T T T" Time=187
Ar 2.130971 1.585182 1.606132
Ar 1.065173 1.909758 1.344640
Ar 1.921025 1.952783 0.978770
Ar 2.176134 1.520884 0.459672
Ar 2.231347 0.603821 1.128069
Ar 1.497976 0.961549 0.887534
Ar 1.804808 2.313289 1.632256
Ar 2.169942 1.422093 0.366511
Ar 0.980515 1.498572 2.538453
Ar 1.573371 2.448521 0.081173
10
Lattice="10.0 0 0 0 10.0 0 0 0 10.0" Properties=species:S:1:pos:R:3 pbc="T T T" Time=188
Ar 2.140485 1.589250 1.614451
Ar 1.069404 1.914825 1.351301
Ar 1.928653 1.958762 0.980083
Ar 2.185616 1.528706 0.461706
Ar 2.238869 0.606438 1.129868
Ar 1.501384 0.961786 0.890943
Ar 1.811939 2.322171 1.637163
Ar 2.176240 1.424410 0.367376
Ar 0.984324 1.503697 2.547038
Ar 1.581733 2.457217 0.081448
10
Lattice="10.0 0 0 0 10.0 0 0 0 10.0" Properties=species:S:1:pos:R:3 pbc="T T T" Time=189
Ar 2.149999 1.593317 1.622770
Ar 1.073635 1.919892 1.357963
Ar 1.936281 1.964741 0.981396
Ar 2.195099 1.536528 0.463739
Ar 2.246392 0.609054 1.131668
Ar 1.504792 0.962022 0.894353
Ar 1.819070 2.331052 1.642070
Ar 2.182539 1.426726 0.368241
Ar 0.988133 1.508822 2.555623
Ar 1.590095 2.465913 0.081723
10
Lattice="10.0 0 0 0 10.0 0 0 0 10.0" Properties=species:S:1:pos:R:3 pbc="T T T" Time=190
Ar 2.159513 1.597385 1.631089
Ar 1.077867 1.924958 1.364624
Ar 1.943909 1.970720 0.982709
Ar 2.204581 1.544350 0.465773
Ar 2.253914 0.611671 1.133467
Ar 1.508200 0.962259 0.897762
Ar 1.826200 2.339933 1.646977
Ar 2.188837 1.429043 0.369107
Ar 0.991942 1.513948 2.564208
Ar 1.598457 2.474609 0.081997
10
Lattice="10.0 0 0 0 10.0 0 0 0 10.0" Properties=species:S:1:pos:R:3 pbc="T T T" Time=191
Ar 2.169027 1.601453 1.639408
Ar 1.082098 1.930025 1.371286
Ar 1.951537 1.976699 0.984022
Ar 2.214063 1.552172 0.467806
Ar 2.261436 0.614287 1.135266
Ar 1.511608 0.962495 0.901172
Ar 1.833331 2.348815 1.651884
Ar 2.195136 1.431359 0.369972
Ar 0.995752 1.519073 2.572793
Ar 1.606819 2.483305 0.082272
10
Lattice="10.0 0 0 0 10.0 0 0 0 10.0" Properties=species:S:1:pos:R:3 pbc="T T T" Time=192
Ar 2.178541 1.605520 1.647727
Ar 1.086329 1.935091 1.377947
Ar 1.959165 1.982679 0.985335
Ar 2.223545 1.559994 0.469839
Ar 2.268958 0.616904 1.137066
Ar 1.515016 0.962732 0.904582
Ar 1.840462 2.357696 1.656791
Ar 2.201434 1.433676 0.370837
Ar 0.999561 1.524198 2.581378
Ar 1.615181 2.492001 0.082546
10
Lattice="10.0 0 0 0 10.0 0 0 0 10.0" Properties=species:S:1:pos:R:3 pbc="T T T" Time=193
Ar 2.188055 1.609588 1.656046
Ar 1.090560 1.940158 1.384609
Ar 1.966793 1.988658 0.986648
Ar 2.233027 1.567816 0.471873
Ar 2.276480 0.619520 1.138865
Ar 1.518424 0.962968 0.907991
Ar 1.847592 2.366578 1.661698
Ar 2.207733 1.435992 0.371702
Ar 1.003370 1.529324 2.589963
Ar 1.623543 2.500697 0.082821
10
Lattice="10.0 0 0 0 10.0 0 0 0 10.0" Properties=species:S:1:pos:R:3 pbc="T T T" Time=194
Ar 2.197569 1.613655 1.664365
Ar 1.094791 1.945225 1.391270
Ar 1.974421 1.994637 0.987961
Ar 2.242510 1.575638 0.473906
Ar 2.284002 0.622137 1.140665
Ar 1.521832 0.963205 0.911401
Ar 1.854723 2.375459 1.666605
Ar 2.214031 1.438309 0.372567
Ar 1.007179 1.534449 2.598547
Ar 1.631905 2.509393 0.083096
10
Lattice="10.0 0 0 0 10.0 0 0 0 10.0" Properties=species:S:1:pos:R:3 pbc="T T T" Time=195
Ar 2.207083 1.617723 1.672684
Ar 1.099022 1.950291 1.397932
Ar 1.982049 2.000616 0.989274
Ar 2.251992 1.583460 0.475939
Ar 2.291524 0.624754 1.142464
Ar 1.525240 0.963441 0.914810
Ar 1.861853 2.384340 1.671513
Ar 2.220330 1.440625 0.373433
Ar 1.010988 1.539574 2.607132
Ar 1.640267 2.518089 0.083370
10
Lattice="10.0 0 0 0 10.0 0 0 0 10.0" Properties=species:S:1:pos:R:3 pbc="T T T" Time=196
Ar 2.216597 1.621791 1.681003
Ar 1.103253 1.955358 1.404593
Ar 1.989677 2.006595 0.990587
Ar 2.261474 1.591282 0.477973
Ar 2.299046 0.627370 1.144263
Ar 1.528649 0.963678 0.918220
Ar 1.868984 2.393222 1.676420
Ar 2.226628 1.442942 0.374298
Ar 1.014798 1.544699 2.615717
Ar 1.648629 2.526785 0.083645
10
Lattice="10.0 0 0 0 10.0 0 0 0 10.0" Properties=species:S:1:pos:R:3 pbc="T T T" Time=197
Ar 2.226112 1.625858 1.689322
Ar 1.107484 1.960425 1.411255
Ar 1.997305 2.012574 0.991900
Ar 2.270956 1.599104 0.480006
Ar 2.306568 0.629987 1.146063
Ar 1.532057 0.963914 0.921630
Ar 1.876115 2.402103 1.681327
Ar 2.232927 1.445258 0.375163
Ar 1.018607 1.549825 2.624302
Ar 1.656991 2.535481 0.083920
10
Lattice="10.0 0 0 0 10.0 0 0 0 10.0" Properties=species:S:1:pos:R:3 pbc="T T T" Time=198
Ar 2.235626 1.629926 1.697641
Ar 1.111716 1.965491 1.417917
Ar 2.004933 2.018553 0.993213
Ar 2.280438 1.606927 0.482039
Ar 2.314090 0.632603 1.147862
Ar 1.535465 0.964151 0.925039
Ar 1.883245 2.410985 1.686234
Ar 2.239225 1.447575 0.376028
Ar 1.022416 1.554950 2.632887
Ar 1.665353 2.544177 0.084194
10
Lattice="10.0 0 0 0 10.0 0 0 0 10.0" Properties=species:S:1:pos:R:3 pbc="T T T" Time=199
Ar 2.245140 1.633993 1.705960
Ar 1.115947 1.970558 1.424578
Ar 2.012561 2.024532 0.994526
Ar 2.289921 1.614749 0.484073
Ar 2.321612 0.635220 1.149662
Ar 1.538873 0.964387 0.928449
Ar 1.890376 2.419866 1.691141
Ar 2.245524 1.449891 0.376894
Ar 1.026225 1.560075 2.641472
Ar 1.673715 2.552873 0.084469
10
Lattice="10.0 0 0 0 10.0 0 0 0 10.0" Properties=species:S:1:pos:R:3 pbc="T T T" Time=200
Ar 2.254654 1.638061 1.714279
Ar 1.120178 1.975625 1.431240
Ar 2.020189 2.030511 0.995839
Ar 2.299403 1.622571 0.486106
Ar 2.329134 0.637836 1.151461
Ar 1.542281 0.964624 0.931858
Ar 1.897507 2.428747 1.696048
Ar 2.251822 1.452208 0.377759
Ar 1.030034 1.565201 2.650057
Ar 1.682077 2.561569 0.084743
10
Lattice="10.0 0 0 0 10.0 0 0 0 10.0" Properties=species:S:1:pos:R:3 pbc="T T T" Time=201
Ar 2.264168 1.642129 1.722598
Ar 1.124409 1.980691 1.437901
Ar 2.027817 2.036490 0.997152
Ar 2.308885 1.630393 0.488139
Ar 2.336657 0.640453 1.153261
Ar 1.545689 0.964860 0.935268
Ar 1.904637 2.437629 1.700955
Ar 2.258121 1.454524 0.378624
Ar 1.033843 1.570326 2.658642
Ar 1.690439 2.570265 0.085018
10
Lattice="10.0 0 0 0 10.0 0 0 0 10.0" Properties=species:S:1:pos:R:3 pbc="T T T" Time=202
Ar 2.273682 1.646196 1.730917
Ar 1.128640 1.985758 1.444563
Ar 2.035445 2.042469 0.998465
Ar 2.318367 1.638215 0.490173
Ar 2.344179 0.643070 1.155060
Ar 1.549097 0.965097 0.938678
Ar 1.911768 2.446510 1.705862
Ar 2.264419 1.456841 0.379489
Ar 1.037653 1.575451 2.667227
Ar 1.698801 2.578961 0.085293
10
Lattice="10.0 0 0 0 10.0 0 0 0 10.0" Properties=species:S:1:pos:R:3 pbc="T T T" Time=203
Ar 2.283196 1.650264 1.739236
Ar 1.132871 1.990825 1.451224
Ar 2.043073 2.048448 0.999778
Ar 2.327849 1.646037 0.492206
Ar 2.351701 0.645686 1.156859
Ar 1.552505 0.965333 0.942087
Ar 1.918899 2.455391 1.710769
Ar 2.270718 1.459157 0.380354
Ar 1.041462 1.580577 2.675812
Ar 1.707162 2.587657 0.085567
10
Lattice="10.0 0 0 0 10.0 0 0 0 10.0" Properties=species:S:1:pos:R:3 pbc="T T T" Time=204
Ar 2.292710 1.654331 1.747555
Ar 1.137102 1.995891 1.457886
Ar 2.050701 2.054427 1.001091
Ar 2.337332 1.653859 0.494239
Ar 2.359223 0.648303 1.158659
Ar 1.555913 0.965569 0.945497
Ar 1.926029 2.464273 1.715676
Ar 2.277016 1.461474 0.381220
Ar 1.045271 1.585702 2.684396
Ar 1.715524 2.596353 0.085842
10
Lattice="10.0 0 0 0 10.0 0 0 0 10.0" Properties=species:S:1:pos:R:3 pbc="T T T" Time=205
Ar 2.302224 1.658399 1.755874
Ar 1.141334 2.000958 1.464547
Ar 2.058329 2.060407 1.002404
Ar 2.346814 1.661681 0.496273
Ar 2.366745 0.650919 1.160458
Ar 1.559321 0.965806 0.948906
Ar 1.933160 2.473154 1.720583
Ar 2.283315 1.463790 0.382085
Ar 1.049080 1.590827 2.692981
Ar 1.723886 2.605049 0.086116
10
Lattice="10.0 0 0 0 10.0 0 0 0 10.0" Properties=species:S:1:pos:R:3 pbc="T T T" Time=206
Ar 2.311738 1.662467 1.764193
Ar 1.145565 2.006024 1.471209
Ar 2.065957 2.066386 1.003717
Ar 2.356296 1.669503 0.498306
Ar 2.374267 0.653536 1.162258
Ar 1.562729 0.966042 0.952316
Ar 1.940290 2.482036 1.725490
Ar 2.289613 1.466107 0.382950
Ar 1.052889 1.595953 2.701566
Ar 1.732248 2.613744 0.086391
10
Lattice="10.0 0 0 0 10.0 0 0 0 10.0" Properties=species:S:1:pos:R:3 pbc="T T T" Time=207
Ar 2.321252 1.666534 1.772512
Ar 1.149796 2.011091 1.477870
Ar 2.073585 2.072365 1.005030
Ar 2.365778 1.677325 0.500340
Ar 2.381789 0.656152 1.164057
Ar 1.566137 0.966279 0.955726
Ar 1.947421 2.490917 1.730397
Ar 2.295912 1.468423 0.383815
Ar 1.056699 1.601078 2.710151
Ar 1.740610 2.622440 0.086666
10
Lattice="10.0 0 0 0 10.0 0 0 0 10.0" Properties=species:S:1:pos:R:3 pbc="T T T" Time=208
Ar 2.330766 1.670602 1.780831
Ar 1.154027 2.016158 1.484532
Ar 2.081213 2.078344 1.006343
Ar 2.375260 1.685147 0.502373
Ar 2.389311 0.658769 1.165857
Ar 1.569546 0.966515 0.959135
Ar 1.954552 2.499798 1.735304
Ar 2.302210 1.470740 0.384680
Ar 1.060508 1.606203 2.718736
Ar 1.748972 2.631136 0.086940
10
Lattice="10.0 0 0 0 10.0 0 0 0 10.0" Properties=species:S:1:pos:R:3 pbc="T T T" Time=209
Ar 2.340280 1.674669 1.789150
Ar 1.158258 2.021224 1.491193
Ar 2.088841 2.084323 1.007656
Ar 2.384743 1.692969 0.504406
Ar 2.396833 0.661386 1.167656
Ar 1.572954 0.966752 0.962545
Ar 1.961682 2.508680 1.740211
Ar 2.308509 1.473056 0.385546
Ar 1.064317 1.611329 2.727321
Ar 1.757334 2.639832 0.087215
10
Lattice="10.0 0 0 0 10.0 0 0 0 10.0" Properties=species:S:1:pos:R:3 pbc="T T T" Time=210
Ar 2.349794 1.678737 1.797469
Ar 1.162489 2.026291 1.497855
Ar 2.096469 2.090302 1.008969
Ar 2.394225 1.700791 0.506440
Ar 2.404355 0.664002 1.169455
Ar 1.576362 0.966988 0.965954
Ar 1.968813 2.517561 1.745118
Ar 2.314807 1.475373 0.386411
Ar 1.068126 1.616454 2.735906
Ar 1.765696 2.648528 0.087490
10
Lattice="10.0 0 0 0 10.0 0 0 0 10.0" Properties=species:S:1:pos:R:3 pbc="T T T" Time=211
Ar 2.359308 1.682804 1.805788
Ar 1.166720 2.031358 1.504517
Ar 2.104097 2.096281 1.010282
Ar 2.403707 1.708614 0.508473
Ar 2.411877 0.666619 1.171255
Ar 1.579770 0.967225 0.969364
Ar 1.975944 2.526443 1.750025
Ar 2.321106 1.477689 0.387276
Ar 1.071935 1.621579 2.744491
Ar 1.774058 2.657224 0.087764
10
Lattice="10.0 0 0 0 10.0 0 0 0 10.0" Properties=species:S:1:pos:R:3 pbc="T T T" Time=212
Ar 2.368822 1.686872 1.814107
Ar 1.170951 2.036424 1.511178
Ar 2.111725 2.102260 1.011595
Ar 2.413189 1.716436 0.510506
Ar 2.419399 0.669235 1.173054
Ar 1.583178 0.967461 0.972774
Ar 1.983074 2.535324 1.754932
Ar 2.327404 1.480006 0.388141
Ar 1.075744 1.626705 2.753076
Ar 1.782420 2.665920 0.088039
10
Lattice="10.0 0 0 0 10.0 0 0 0 10.0" Properties=species:S:1:pos:R:3 pbc="T T T" Time=213
Ar 2.378336 1.690940 1.822426
Ar 1.175183 2.041491 1.517840
Ar 2.119353 2.108239 1.012908
Ar 2.422671 1.724258 0.512540
Ar 2.426922 0.671852 1.174854
Ar 1.586586 0.967698 0.976183
Ar 1.990205 2.544205 1.759839
Ar 2.333702 1.482322 0.389006
Ar 1.079554 1.631830 2.761660
Ar 1.790782 2.674616 0.088313
10
Lattice="10.0 0 0 0 10.0 0 0 0 10.0" Properties=species:S:1:pos:R:3 pbc="T T T" Time=214
Ar 2.387850 1.695007 1.830745
Ar 1.179414 2.046558 1.524501
Ar 2.126981 2.114218 1.014221
Ar 2.432154 1.732080 0.514573
Ar 2.434444 0.674468 1.176653
Ar 1.589994 0.967934 0.979593
Ar 1.997335 2.553087 1.764746
Ar 2.340001 1.484639 0.389872
Ar 1.083363 1.636955 2.770245
Ar 1.799144 2.683312 0.088588
10
Lattice="10.0 0 0 0 10.0 0 0 0 10.0" Properties=species:S:1:pos:R:3 pbc="T T T" Time=215
Ar 2.397364 1.699075 1.839064
Ar 1.183645 2.051624 1.531163
Ar 2.134609 2.120197 1.015534
Ar 2.441636 1.739902 0.516606
Ar 2.441966 0.677085 1.178453
Ar 1.593402 0.968171 0.983002
Ar 2.004466 2.561968 1.769653
Ar 2.346299 1.486955 0.390737
Ar 1.087172 1.642081 2.778830
Ar 1.807506 2.692008 0.088863
10
Lattice="10.0 0 0 0 10.0 0 0 0 10.0" Properties=species:S:1:pos:R:3 pbc="T T T" Time=216
Ar 2.406878 1.703142 1.847383
Ar 1.187876 2.056691 1.537824
Ar 2.142237 2.126176 1.016847
Ar 2.451118 1.747724 0.518640
Ar 2.449488 0.679702 1.180252
Ar 1.596810 0.968407 0.986412
Ar 2.011597 2.570850 1.774561
Ar 2.352598 1.489272 0.391602
Ar 1.090981 1.647206 2.787415
Ar 1.815868 2.700704 0.089137
10
Lattice="10.0 0 0 0 10.0 0 0 0 10.0" Properties=species:S:1:pos:R:3 pbc="T T T" Time=217
Ar 2.416392 1.707210 1.855702
Ar 1.192107 2.061758 1.544486
Ar 2.149865 2.132155 1.018160
Ar 2.460600 1.755546 0.520673
Ar 2.457010 0.682318 1.182051
Ar 1.600218 0.968644 0.989822
Ar 2.018727 2.579731 1.779468
Ar 2.358896 1.491588 0.392467
Ar 1.094790 1.652331 2.796000
Ar 1.824230 2.709400 0.089412
10
Lattice="10.0 0 0 0 10.0 0 0 0 10.0" Properties=species:S:1:pos:R:3 pbc="T T T" Time=218
Ar 2.425906 1.711278 1.864021
Ar 1.196338 2.066824 1.551147
Ar 2.157493 2.138134 1.019473
Ar 2.470082 1.763368 0.522706
Ar 2.464532 0.684935 1.183851
Ar 1.603626 0.968880 0.993231
Ar 2.025858 2.588612 1.784375
Ar 2.365195 1.493904 0.393332
Ar 1.098599 1.657457 2.804585
Ar 1.832592 2.718096 0.089686
10
Lattice="10.0 0 0 0 10.0 0 0 0 10.0" Properties=species:S:1:pos:R:3 pbc="T T T" Time=219
Ar 2.435421 1.715345 1.872340
Ar 1.200569 2.071891 1.557809
Ar 2.165121 2.144114 1.020786
Ar 2.479565 1.771190 0.524740
Ar 2.472054 0.687551 1.185650
Ar 1.607034 0.969117 0.996641
Ar 2.032989 2.597494 1.789282
Ar 2.371493 1.496221 0.394198
Ar 1.102409 1.662582 2.813170
Ar 1.840954 2.726792 0.089961
10
Lattice="10.0 0 0 0 10.0 0 0 0 10.0" Properties=species:S:1:pos:R:3 pbc="T T T" Time=220
Ar 2.444935 1.719413 1.880659
Ar 1.204801 2.076957 1.564470
Ar 2.172749 2.150093 1.022099
Ar 2.489047 1.779012 0.526773
Ar 2.479576 0.690168 1.187450
Ar 1.610443 0.969353 1.000050
Ar 2.040119 2.606375 1.794189
Ar 2.377792 1.498537 0.395063
Ar 1.106218 1.667707 2.821755
Ar 1.849316 2.735488 0.090236
10
Lattice="10.0 0 0 0 10.0 0 0 0 10.0" Properties=species:S:1:pos:R:3 pbc="T T T" Time=221
Ar 2.454449 1.723480 1.888978
Ar 1.209032 2.082024 1.571132
Ar 2.180377 2.156072 1.023412
Ar 2.498529 1.786834 0.528806
Ar 2.487098 0.692784 1.189249
Ar 1.613851 0.969590 1.003460
Ar 2.047250 2.615257 1.799096
Ar 2.384090 1.500854 0.395928
Ar 1.110027 1.672833 2.830340
Ar 1.857678 2.744184 0.090510
10
Lattice="10.0 0 0 0 10.0 0 0 0 10.0" Properties=species:S:1:pos:R:3 pbc="T T T" Time=222
Ar 2.463963 1.727548 1.897297
Ar 1.213263 2.087091 1.577793
Ar 2.188004 2.162051 1.024725
Ar 2.508011 1.794656 0.530840
Ar 2.494620 0.695401 1.191049
Ar 1.617259 0.969826 1.006870
Ar 2.054380 2.624138 1.804003
Ar 2.390389 1.503170 0.396793
Ar 1.113836 1.677958 2.838925
Ar 1.866040 2.752880 0.090785
10
Lattice="10.0 0 0 0 10.0 0 0 0 10.0" Properties=species:S:1:pos:R:3 pbc="T T T" Time=223
Ar 2.473477 1.731616 1.905616
Ar 1.217494 2.092157 1.584455
Ar 2.195632 2.168030 1.026038
Ar 2.517493 1.802478 0.532873
Ar 2.502142 0.698018 1.192848
Ar 1.620667 0.970062 1.010279
Ar 2.061511 2.633019 1.808910
Ar 2.396687 1.505487 0.397658
Ar 1.117645 1.683083 2.847509
Ar 1.874402 2.761576 0.091060
10
Lattice="10.0 0 0 0 10.0 0 0 0 10.0" Properties=species:S:1:pos:R:3 pbc="T T T" Time=224
Ar 2.482991 1.735683 1.913935
Ar 1.221725 2.097224 1.591117
Ar 2.203260 2.174009 1.027351
Ar 2.526976 1.810301 0.534907
Ar 2.509665 0.700634 1.194647
Ar 1.624075 0.970299 1.013689
Ar 2.068642 2.641901 1.813817
Ar 2.402986 1.507803 0.398524
Ar 1.121455 1.688208 2.856094
Ar 1.882764 2.770272 0.091334
10
Lattice="10.0 0 0 0 10.0 0 0 0 10.0" Properties=species:S:1:pos:R:3 pbc="T T T" Time=225
Ar 2.492505 1.739751 1.922254
Ar 1.225956 2.102291 1.597778
Ar 2.210888 2.179988 1.028664
Ar 2.536458 1.818123 0.536940
Ar 2.517187 0.703251 1.196447
Ar 1.627483 0.970535 1.017098
Ar 2.075772 2.650782 1.818724
Ar 2.409284 1.510120 0.399389
Ar 1.125264 1.693334 2.864679
Ar 1.891126 2.778968 0.091609
10
Lattice="10.0 0 0 0 10.0 0 0 0 10.0" Properties=species:S:1:pos:R:3 pbc="T T T" Time=226
Ar 2.502019 1.743818 1.930573
Ar 1.230187 2.107357 1.604440
Ar 2.218516 2.185967 1.029977
Ar 2.545940 1.825945 0.538973
Ar 2.524709 0.705867 1.198246
Ar 1.630891 0.970772 1.020508
Ar 2.082903 2.659664 1.823631
Ar 2.415583 1.512436 0.400254
Ar 1.129073 1.698459 2.873264
Ar 1.899488 2.787664 0.091883
10
Lattice="10.0 0 0 0 10.0 0 0 0 10.0" Properties=species:S:1:pos:R:3 pbc="T T T" Time=227
Ar 2.511533 1.747886 1.938892
Ar 1.234419 2.112424 1.611101
Ar 2.226144 2.191946 1.031290
Ar 2.555422 1.833767 0.541007
Ar 2.532231 0.708484 1.200046
Ar 1.634299 0.971008 1.023918
Ar 2.090034 2.668545 1.828538
Ar 2.421881 1.514753 0.401119
Ar 1.132882 1.703584 2.881849
Ar 1.907850 2.796360 0.092158
10
Lattice="10.0 0 0 0 10.0 0 0 0 10.0" Properties=species:S:1:pos:R:3 pbc="T T T" Time=228
Ar 2.521047 1.751954 1.947211
Ar 1.238650 2.117491 1.617763
Ar 2.233772 2.197925 1.032603
Ar 2.564904 1.841589 0.543040
Ar 2.539753 0.711100 1.201845
Ar 1.637707 0.971245 1.027327
Ar 2.097164 2.677426 1.833445
Ar 2.428180 1.517069 0.401984
Ar 1.136691 1.708710 2.890434
Ar 1.916212 2.805055 0.092433
10
Lattice="10.0 0 0 0 10.0 0 0 0 10.0" Properties=species:S:1:pos:R:3 pbc="T T T" Time=229
Ar 2.530561 1.756021 1.955530
Ar 1.242881 2.122557 1.624424
Ar 2.241400 2.203904 1.033916
Ar 2.574387 1.849411 0.545073
Ar 2.547275 0.713717 1.203645
Ar 1.641115 0.971481 1.030737
Ar 2.104295 2.686308 1.838352
Ar 2.434478 1.519386 0.402850
Ar 1.140500 1.713835 2.899019
Ar 1.924574 2.813751 0.092707
10
Lattice="10.0 0 0 0 10.0 0 0 0 10.0" Properties=species:S:1:pos:R:3 pbc="T T T" Time=230
Ar 2.540075 1.760089 1.963849
Ar 1.247112 2.127624 1.631086
Ar 2.249028 2.209883 1.035229
Ar 2.583869 1.857233 0.547107
Ar 2.554797 0.716334 1.205444
Ar 1.644523 0.971718 1.034146
Ar 2.111425 2.695189 1.843259
Ar 2.440777 1.521702 0.403715
Ar 1.144310 1.718960 2.907604
Ar 1.932935 2.822447 0.092982
10
Lattice="10.0 0 0 0 10.0 0 0 0 10.0" Properties=species:S:1:pos:R:3 pbc="T T T" Time=231
Ar 2.549589 1.764156 1.972168
Ar 1.251343 2.132691 1.637747
Ar 2.256656 2.215862 1.036542
Ar 2.593351 1.865055 0.549140
Ar 2.562319 0.718950 1.207243
Ar 1.647932 0.971954 1.037556
Ar 2.118556 2.704070 1.848166
Ar 2.447075 1.524019 0.404580
Ar 1.148119 1.724086 2.916189
Ar 1.941297 2.831143 0.093257
10
Lattice="10.0 0 0 0 10.0 0 0 0 10.0" Properties=species:S:1:pos:R:3 pbc="T T T" Time=232
Ar 2.559103 1.768224 1.980487
Ar 1.255574 2.137757 1.644409
Ar 2.264284 2.221842 1.037855
Ar 2.602833 1.872877 0.551173
Ar 2.569841 0.721567 1.209043
Ar 1.651340 0.972191 1.040966
Ar 2.125687 2.712952 1.853073
Ar 2.453374 1.526335 0.405445
Ar 1.151928 1.729211 2.924774
Ar 1.949659 2.839839 0.093531
10
Lattice="10.0 0 0 0 10.0 0 0 0 10.0" Properties=species:S:1:pos:R:3 pbc="T T T" Time=233
Ar 2.568617 1.772292 1.988806
Ar 1.259805 2.142824 1.651070
Ar 2.271912 2.227821 1.039168
Ar 2.612316 1.880699 0.553207
Ar 2.577363 0.724183 1.210842
Ar 1.654748 0.972427 1.044375
Ar 2.132817 2.721833 1.857980
Ar 2.459672 1.528652 0.406310
Ar 1.155737 1.734336 2.933358
Ar 1.958021 2.848535 0.093806
10
Lattice="10.0 0 0 0 10.0 0 0 0 10.0" Properties=species:S:1:pos:R:3 pbc="T T T" Time=234
Ar 2.578131 1.776359 1.997125
Ar 1.264036 2.147890 1.657732
Ar 2.279540 2.233800 1.040481
Ar 2.621798 1.888521 0.555240
Ar 2.584885 0.726800 1.212642
Ar 1.658156 0.972664 1.047785
Ar 2.139948 2.730715 1.862887
Ar 2.465971 1.530968 0.407176
Ar 1.159546 1.739462 2.941943
Ar 1.966383 2.857231 0.094080
10
Lattice="10.0 0 0 0 10.0 0 0 0 10.0" Properties=species:S:1:pos:R:3 pbc="T T T" Time=235
Ar 2.587645 1.780427 2.005444
Ar 1.268268 2.152957 1.664394
Ar 2.287168 2.239779 1.041794
Ar 2.631280 1.896343 0.557273
Ar 2.592407 0.729416 1.214441
Ar 1.661564 0.972900 1.051194
Ar 2.147079 2.739596 1.867794
Ar 2.472269 1.533285 0.408041
Ar 1.163355 1.744587 2.950528
Ar 1.974745 2.865927 0.094355
10
Lattice="10.0 0 0 0 10.0 0 0 0 10.0" Properties=species:S:1:pos:R:3 pbc="T T T" Time=236
Ar 2.597159 1.784494 2.013763
Ar 1.272499 2.158024 1.671055
Ar 2.294796 2.245758 1.043107
Ar 2.640762 1.904165 0.559307
Ar 2.599930 0.732033 1.216240
Ar 1.664972 0.973137 1.054604
Ar 2.154209 2.748477 1.872701
Ar 2.478568 1.535601 0.408906
Ar 1.167165 1.749712 2.959113
Ar 1.983107 2.874623 0.094630
10
Lattice="10.0 0 0 0 10.0 0 0 0 10.0" Properties=species:S:1:pos:R:3 pbc="T T T" Time=237
Ar 2.606673 1.788562 2.022082
Ar 1.276730 2.163090 1.677717
Ar 2.302424 2.251737 1.044420
Ar 2.650244 1.911988 0.561340
Ar 2.607452 0.734650 1.218040
Ar 1.668380 0.973373 1.058014
Ar 2.161340 2.757359 1.877609
Ar 2.484866 1.537918 0.409771
Ar 1.170974 1.754838 2.967698
Ar 1.991469 2.883319 0.094904
10
Lattice="10.0 0 0 0 10.0 0 0 0 10.0" Properties=species:S:1:pos:R:3 pbc="T T T" Time=238
Ar 2.616187 1.792629 2.030401
Ar 1.280961 2.168157 1.684378
Ar 2.310052 2.257716 1.045733
Ar 2.659727 1.919810 0.563373
Ar 2.614974 0.737266 1.219839
Ar 1.671788 0.973610 1.061423
Ar 2.168471 2.766240 1.882516
Ar 2.491165 1.540234 0.410636
Ar 1.174783 1.759963 2.976283
Ar 1.999831 2.892015 0.095179
10
Lattice="10.0 0 0 0 10.0 0 0 0 10.0" Properties=species:S:1:pos:R:3 pbc="T T T" Time=239
Ar 2.625701 1.796697 2.038720
Ar 1.285192 2.173224 1.691040
Ar 2.317680 2.263695 1.047046
Ar 2.669209 1.927632 0.565407
Ar 2.622496 0.739883 1.221639
Ar 1.675196 0.973846 1.064833
Ar 2.175601 2.775122 1.887423
Ar 2.497463 1.542551 0.411502
Ar 1.178592 1.765088 2.984868
Ar 2.008193 2.900711 0.095453
10
Lattice="10.0 0 0 0 10.0 0 0 0 10.0" Properties=species:S:1:pos:R:3 pbc="T T T" Time=240
Ar 2.635215 1.800765 2.047039
Ar 1.289423 2.178290 1.697701
Ar 2.325308 2.269674 1.048359
Ar 2.678691 1.935454 0.567440
Ar 2.630018 0.742499 1.223438
Ar 1.678604 0.974082 1.068242
Ar 2.182732 2.784003 1.892330
Ar 2.503762 1.544867 0.412367
Ar 1.182401 1.770214 2.993453
Ar 2.016555 2.909407 0.095728
10
Lattice="10.0 0 0 0 10.0 0 0 0 10.0" Properties=species:S:1:pos:R:3 pbc="T T T" Time=241
Ar 2.644729 1.804832 2.055358
Ar 1.293654 2.183357 1.704363
Ar 2.332936 2.275653 1.049672
Ar 2.688173 1.943276 0.569474
Ar 2.637540 0.745116 1.225238
Ar 1.682012 0.974319 1.071652
Ar 2.189862 2.792884 1.897237
Ar 2.510060 1.547184 0.413232
Ar 1.186211 1.775339 3.002038
Ar 2.024917 2.918103 0.096003
10
Lattice="10.0 0 0 0 10.0 0 0 0 10.0" Properties=species:S:1:pos:R:3 pbc="T T T" Time=242
Ar 2.654244 1.808900 2.063677
Ar 1.297886 2.188424 1.711024
Ar 2.340564 2.281632 1.050985
Ar 2.697655 1.951098 0.571507
Ar 2.645062 0.747732 1.227037
Ar 1.685420 0.974555 1.075062
Ar 2.196993 2.801766 1.902144
Ar 2.516359 1.549500 0.414097
Ar 1.190020 1.780464 3.010622
Ar 2.033279 2.926799 0.096277
10
Lattice="10.0 0 0 0 10.0 0 0 0 10.0" Properties=species:S:1:pos:R:3 pbc="T T T" Time=243
Ar 2.663758 1.812967 2.071996
Ar 1.302117 2.193490 1.717686
Ar 2.348192 2.287611 1.052298
Ar 2.707138 1.958920 0.573540
Ar 2.652584 0.750349 1.228836
Ar 1.688829 0.974792 1.078471
Ar 2.204124 2.810647 1.907051
Ar 2.522657 1.551817 0.414962
Ar 1.193829 1.785590 3.019207
Ar 2.041641 2.935495 0.096552
10
Lattice="10.0 0 0 0 10.0 0 0 0 10.0" Properties=species:S:1:pos:R:3 pbc="T T T" Time=244
Ar 2.673272 1.817035 2.080315
Ar 1.306348 2.198557 1.724347
Ar 2.355820 2.293590 1.053611
Ar 2.716620 1.966742 0.575574
Ar 2.660106 0.752966 1.230636
Ar 1.692237 0.975028 1.081881
Ar 2.211254 2.819529 1.911958
Ar 2.528956 1.554133 0.415828
Ar 1.197638 1.790715 3.027792
Ar 2.050003 2.944191 0.096827
10
Lattice="10.0 0 0 0 10.0 0 0 0 10.0" Properties=species:S:1:pos:R:3 pbc="T T T" Time=245
Ar 2.682786 1.821103 2.088634
Ar 1.310579 2.203624 1.731009
Ar 2.363448 2.299570 1.054924
Ar 2.726102 1.974564 0.577607
Ar 2.667628 0.755582 1.232435
Ar 1.695645 0.975265 1.085290
Ar 2.218385 2.828410 1.916865
Ar 2.535254 1.556450 0.416693
Ar 1.201447 1.795840 3.036377
Ar 2.058365 2.952887 0.097101
10
Lattice="10.0 0 0 0 10.0 0 0 0 10.0" Properties=species:S:1:pos:R:3 pbc="T T T" Time=246
Ar 2.692300 1.825170 2.096953
Ar 1.314810 2.208690 1.737670
Ar 2.371076 2.305549 1.056237
Ar 2.735584 1.982386 0.579640
Ar 2.675150 0.758199 1.234235
Ar 1.699053 0.975501 1.088700
Ar 2.225516 2.837291 1.921772
Ar 2.541553 1.558766 0.417558
Ar 1.205256 1.800966 3.044962
Ar 2.066727 2.961583 0.097376
10
Lattice="10.0 0 0 0 10.0 0 0 0 10.0" Properties=species:S:1:pos:R:3 pbc="T T T" Time=247
Ar 2.701814 1.829238 2.105272
Ar 1.319041 2.213757 1.744332
Ar 2.378704 2.311528 1.057550
Ar 2.745066 1.990208 0.581674
Ar 2.682672 0.760815 1.236034
Ar 1.702461 0.975738 1.092110
Ar 2.232646 2.846173 1.926679
Ar 2.547851 1.561083 0.418423
Ar 1.209066 1.806091 3.053547
Ar 2.075089 2.970279 0.097650
10
Lattice="10.0 0 0 0 10.0 0 0 0 10.0" Properties=species:S:1:pos:R:3 pbc="T T T" Time=248
Ar 2.711328 1.833305 2.113591
Ar 1.323272 2.218823 1.750994
Ar 2.386332 2.317507 1.058863
Ar 2.754549 1.998030 0.583707
Ar 2.690195 0.763432 1.237834
Ar 1.705869 0.975974 1.095519
Ar 2.239777 2.855054 1.931586
Ar 2.554150 1.563399 0.419288
Ar 1.212875 1.811216 3.062132
Ar 2.083451 2.978975 0.097925
10
Lattice="10.0 0 0 0 10.0 0 0 0 10.0" Properties=species:S:1:pos:R:3 pbc="T T T" Time=249
Ar 2.720842 1.837373 2.121910
Ar 1.327503 2.223890 1.757655
Ar 2.393960 2.323486 1.060176
Ar 2.764031 2.005853 0.585740
Ar 2.697717 0.766048 1.239633
Ar 1.709277 0.976211 1.098929
Ar 2.246907 2.863936 1.936493
Ar 2.560448 1.565716 0.420154
Ar 1.216684 1.816342 3.070717
Ar 2.091813 2.987670 0.098200
10
Lattice="10.0 0 0 0 10.0 0 0 0 10.0" Properties=species:S:1:pos:R:3 pbc="T T T" Time=250
Ar 2.730356 1.841441 2.130229
Ar 1.331735 2.228957 1.764317
Ar 2.401588 2.329465 1.061489
Ar 2.773513 2.013675 0.587774
Ar 2.705239 0.768665 1.241432
Ar 1.712685 0.976447 1.102338
Ar 2.254038 2.872817 1.941400
Ar 2.566747 1.568032 0.421019
Ar 1.220493 1.821467 3.079302
Ar 2.100175 2.996366 0.098474
10
Lattice="10.0 0 0 0 10.0 0 0 0 10.0" Properties=species:S:1:pos:R:3 pbc="T T T" Time=251
Ar 2.739870 1.845508 2.138548
Ar 1.335966 2.234023 1.770978
Ar 2.409216 2.335444 1.062802
Ar 2.782995 2.021497 0.589807
Ar 2.712761 0.771282 1.243232
Ar 1.716093 0.976684 1.105748
Ar 2.261169 2.881698 1.946307
Ar 2.573045 1.570349 0.421884
Ar 1.224302 1.826592 3.087887
Ar 2.108537 3.005062 0.098749
10
Lattice="10.0 0 0 0 10.0 0 0 0 10.0" Properties=species:S:1:pos:R:3 pbc="T T T" Time=252
Ar 2.749384 1.849576 2.146867
Ar 1.340197 2.239090 1.777640
Ar 2.416844 2.341423 1.064115
Ar 2.792477 2.029319 0.591840
Ar 2.720283 0.773898 1.245031
Ar 1.719501 0.976920 1.109158
Ar 2.268299 2.890580 1.951214
Ar 2.579344 1.572665 0.422749
Ar 1.228111 1.831717 3.096471
Ar 2.116899 3.013758 0.099023
10
Lattice="10.0 0 0 0 10.0 0 0 0 10.0" Properties=species:S:1:pos:R:3 pbc="T T T" Time=253
Ar 2.758898 1.853643 2.155186
Ar 1.344428 2.244157 1.784301
Ar 2.424472 2.347402 1.065428
Ar 2.801960 2.037141 0.593874
Ar 2.727805 0.776515 1.246831
Ar 1.722909 0.977157 1.112567
Ar 2.275430 2.899461 1.956121
Ar 2.585642 1.574982 0.423614
Ar 1.231921 1.836843 3.105056
Ar 2.125261 3.022454 0.099298
10
Lattice="10.0 0 0 0 10.0 0 0 0 10.0" Properties=species:S:1:pos:R:3 pbc="T T T" Time=254
Ar 2.768412 1.857711 2.163505
Ar 1.348659 2.249223 1.790963
Ar 2.432100 2.353381 1.066741
Ar 2.811442 2.044963 0.595907
Ar 2.735327 0.779131 1.248630
Ar 1.726317 0.977393 1.115977
Ar 2.282561 2.908342 1.961028
Ar 2.591941 1.577298 0.424480
Ar 1.235730 1.841968 3.113641
Ar 2.133623 3.031150 0.099573
10
Lattice="10.0 0 0 0 10.0 0 0 0 10.0" Properties=species:S:1:pos:R:3 pbc="T T T" Time=255
Ar 2.777926 1.861779 2.171824
Ar 1.352890 2.254290 1.797624
Ar 2.439728 2.359360 1.068054
Ar 2.820924 2.052785 0.597940
Ar 2.742849 0.781748 1.250430
Ar 1.729726 0.977630 1.119386
Ar 2.289691 2.917224 1.965935
Ar 2.598239 1.579615 0.425345
Ar 1.239539 1.847093 3.122226
Ar 2.141985 3.039846 0.099847
10
Lattice="10.0 0 0 0 10.0 0 0 0 10.0" Properties=species:S:1:pos:R:3 pbc="T T T" Time=256
Ar 2.787440 1.865846 2.180143
Ar 1.357121 2.259357 1.804286
Ar 2.447356 2.365339 1.069367
Ar 2.830406 2.060607 0.599974
Ar 2.750371 0.784364 1.252229
Ar 1.733134 0.977866 1.122796
Ar 2.296822 2.926105 1.970842
Ar 2.604538 1.581931 0.426210
Ar 1.243348 1.852219 3.130811
Ar 2.150347 3.048542 0.100122
10
Lattice="10.0 0 0 0 10.0 0 0 0 10.0" Properties=species:S:1:pos:R:3 pbc="T T T" Time=257
Ar 2.796954 1.869914 2.188462
Ar 1.361353 2.264423 1.810947
Ar 2.454984 2.371318 1.070680
Ar 2.839888 2.068429 0.602007
Ar 2.757893 0.786981 1.254028
Ar 1.736542 0.978103 1.126206
Ar 2.303952 2.934987 1.975749
Ar 2.610836 1.584248 0.427075
Ar 1.247157 1.857344 3.139396
Ar 2.158708 3.057238 0.100397
10
Lattice="10.0 0 0 0 10.0 0 0 0 10.0" Properties=species:S:1:pos:R:3 pbc="T T T" Time=258
Ar 2.806468 1.873981 2.196781
Ar 1.365584 2.269490 1.817609
Ar 2.462612 2.377298 1.071993
Ar 2.849371 2.076251 0.604040
Ar 2.765415 0.789598 1.255828
Ar 1.739950 0.978339 1.129615
Ar 2.311083 2.943868 1.980657
Ar 2.617135 1.586564 0.427941
Ar 1.250967 1.862469 3.147981
Ar 2.167070 3.065934 0.100671
10
Lattice="10.0 0 0 0 10.0 0 0 0 10.0" Properties=species:S:1:pos:R:3 pbc="T T T" Time=259
Ar 2.815982 1.878049 2.205100
Ar 1.369815 2.274556 1.824271
Ar 2.470240 2.383277 1.073306
Ar 2.858853 2.084073 0.606074
Ar 2.772938 0.792214 1.257627
Ar 1.743358 0.978575 1.133025
Ar 2.318214 2.952749 1.985564
Ar 2.623433 1.588880 0.428806
Ar 1.254776 1.867595 3.156566
Ar 2.175432 3.074630 0.100946
10
Lattice="10.0 0 0 0 10.0 0 0 0 10.0" Properties=species:S:1:pos:R:3 pbc="T T T" Time=260
Ar 2.825496 1.882117 2.213419
Ar 1.374046 2.279623 1.830932
Ar 2.477868 2.389256 1.074619
Ar 2.868335 2.091895 0.608107
Ar 2.780460 0.794831 1.259427
Ar 1.746766 0.978812 1.136434
Ar 2.325344 2.961631 1.990471
Ar 2.629732 1.591197 0.429671
Ar 1.258585 1.872720 3.165151
Ar 2.183794 3.083326 0.101220
10
Lattice="10.0 0 0 0 10.0 0 0 0 10.0" Properties=species:S:1:pos:R:3 pbc="T T T" Time=261
Ar 2.835010 1.886184 2.221738
Ar 1.378277 2.284690 1.837594
Ar 2.485496 2.395235 1.075932
Ar 2.877817 2.099717 0.610141
Ar 2.787982 0.797447 1.261226
Ar 1.750174 0.979048 1.139844
Ar 2.332475 2.970512 1.995378
Ar 2.636030 1.593513 0.430536
Ar 1.262394 1.877845 3.173735
Ar 2.192156 3.092022 0.101495
10
Lattice="10.0 0 0 0 10.0 0 0 0 10.0" Properties=species:S:1:pos:R:3 pbc="T T T" Time=262
Ar 2.844524 1.890252 2.230057
Ar 1.382508 2.289756 1.844255
Ar 2.493124 2.401214 1.077245
Ar 2.887299 2.107540 0.612174
Ar 2.795504 0.800064 1.263026
Ar 1.753582 0.979285 1.143254
Ar 2.339606 2.979394 2.000285
Ar 2.642329 1.595830 0.431401
Ar 1.266203 1.882971 3.182320
Ar 2.200518 3.100718 0.101770
10
Lattice="10.0 0 0 0 10.0 0 0 0 10.0" Properties=species:S:1:pos:R:3 pbc="T T T" Time=263
Ar 2.854038 1.894319 2.238376
Ar 1.386739 2.294823 1.850917
Ar 2.500752 2.407193 1.078558
Ar 2.896782 2.115362 0.614207
Ar 2.803026 0.802680 1.264825
Ar 1.756990 0.979521 1.146663
Ar 2.346736 2.988275 2.005192
Ar 2.648627 1.598146 0.432267
Ar 1.270012 1.888096 3.190905
Ar 2.208880 3.109414 0.102044
10
Lattice="10.0 0 0 0 10.0 0 0 0 10.0" Properties=species:S:1:pos:R:3 pbc="T T T" Time=264
Ar 2.863553 1.898387 2.246695
Ar 1.390971 2.299890 1.857578
Ar 2.508380 2.413172 1.079871
Ar 2.906264 2.123184 0.616241
Ar 2.810548 0.805297 1.266624
Ar 1.760398 0.979758 1.150073
Ar 2.353867 2.997156 2.010099
Ar 2.654926 1.600463 0.433132
Ar 1.273822 1.893221 3.199490
Ar 2.217242 3.118110 0.102319
10
Lattice="10.0 0 0 0 10.0 0 0 0 10.0" Properties=species:S:1:pos:R:3 pbc="T T T" Time=265
Ar 2.873067 1.902454 2.255014
Ar 1.395202 2.304956 1.864240
Ar 2.516008 2.419151 1.081184
Ar 2.915746 2.131006 0.618274
Ar 2.818070 0.807914 1.268424
Ar 1.763806 0.979994 1.153482
Ar 2.360997 3.006038 2.015006
Ar 2.661224 1.602779 0.433997
Ar 1.277631 1.898347 3.208075
Ar 2.225604 3.126806 0.102594
10
Lattice="10.0 0 0 0 10.0 0 0 0 10.0" Properties=species:S:1:pos:R:3 pbc="T T T" Time=266
Ar 2.882581 1.906522 2.263333
Ar 1.399433 2.310023 1.870901
Ar 2.523636 2.425130 1.082497
Ar 2.925228 2.138828 0.620307
Ar 2.825592 0.810530 1.270223
Ar 1.767214 0.980231 1.156892
Ar 2.368128 3.014919 2.019913
Ar 2.667523 1.605096 0.434862
Ar 1.281440 1.903472 3.216660
Ar 2.233966 3.135502 0.102868
10
Lattice="10.0 0 0 0 10.0 0 0 0 10.0" Properties=species:S:1:pos:R:3 pbc="T T T" Time=267
Ar 2.892095 1.910590 2.271652
Ar 1.403664 2.315090 1.877563
Ar 2.531264 2.431109 1.083810
Ar 2.934710 2.146650 0.622341
Ar 2.833114 0.813147 1.272023
Ar 1.770623 0.980467 1.160302
Ar 2.375259 3.023801 2.024820
Ar 2.673821 1.607412 0.435727
Ar 1.285249 1.908597 3.225245
Ar 2.242328 3.144198 0.103143
10
Lattice="10.0 0 0 0 10.0 0 0 0 10.0" Properties=species:S:1:pos:R:3 pbc="T T T" Time=268
Ar 2.901609 1.914657 2.279971
Ar 1.407895 2.320156 1.884224
Ar 2.538892 2.437088 1.085123
Ar 2.944193 2.154472 0.624374
Ar 2.840636 0.815763 1.273822
Ar 1.774031 0.980704 1.163711
Ar 2.382389 3.032682 2.029727
Ar 2.680120 1.609729 0.436593
Ar 1.289058 1.913723 3.233830
Ar 2.250690 3.152894 0.103417
10
Lattice="10.0 0 0 0 10.0 0 0 0 10.0" Properties=species:S:1:pos:R:3 pbc="T T T" Time=269
Ar 2.911123 1.918725 2.288290
Ar 1.412126 2.325223 1.890886
Ar 2.546520 2.443067 1.086436
Ar 2.953675 2.162294 0.626407
Ar 2.848158 0.818380 1.275621
Ar 1.777439 0.980940 1.167121
Ar 2.389520 3.041563 2.034634
Ar 2.686418 1.612045 0.437458
Ar 1.292868 1.918848 3.242415
Ar 2.259052 3.161590 0.103692
10
Lattice="10.0 0 0 0 10.0 0 0 0 10.0" Properties=species:S:1:pos:R:3 pbc="T T T" Time=270
Ar 2.920637 1.922792 2.296609
Ar 1.416357 2.330290 1.897547
Ar 2.554148 2.449046 1.087749
Ar 2.963157 2.170116 0.628441
Ar 2.855680 0.820996 1.277421
Ar 1.780847 0.981177 1.170530
Ar 2.396651 3.050445 2.039541
Ar 2.692717 1.614362 0.438323
Ar 1.296677 1.923973 3.251000
Ar 2.267414 3.170286 0.103967
10
Lattice="10.0 0 0 0 10.0 0 0 0 10.0" Properties=species:S:1:pos:R:3 pbc="T T T" Time=271
Ar 2.930151 1.926860 2.304928
Ar 1.420588 2.335356 1.904209
Ar 2.561776 2.455026 1.089062
Ar 2.972639 2.177938 0.630474
Ar 2.863203 0.823613 1.279220
Ar 1.784255 0.981413 1.173940
Ar 2.403781 3.059326 2.044448
Ar 2.699015 1.616678 0.439188
Ar 1.300486 1.929099 3.259584
Ar 2.275776 3.178981 0.104241
10
Lattice="10.0 0 0 0 10.0 0 0 0 10.0" Properties=species:S:1:pos:R:3 pbc="T T T" Time=272
Ar 2.939665 1.930928 2.313247
Ar 1.424820 2.340423 1.910871
Ar 2.569404 2.461005 1.090375
Ar 2.982121 2.185760 0.632507
Ar 2.870725 0.826230 1.281020
Ar 1.787663 0.981650 1.177350
Ar 2.410912 3.068208 2.049355
Ar 2.705314 1.618995 0.440053
Ar 1.304295 1.934224 3.268169
Ar 2.284138 3.187677 0.104516
10
Lattice="10.0 0 0 0 10.0 0 0 0 10.0" Properties=species:S:1:pos:R:3 pbc="T T T" Time=273
Ar 2.949179 1.934995 2.321566
Ar 1.429051 2.345489 1.917532
Ar 2.577032 2.466984 1.091688
Ar 2.991604 2.193582 0.634541
Ar 2.878247 0.828846 1.282819
Ar 1.791071 0.981886 1.180759
Ar 2.418043 3.077089 2.054262
Ar 2.711612 1.621311 0.440919
Ar 1.308104 1.939349 3.276754
Ar 2.292500 3.196373 0.104790
10
Lattice="10.0 0 0 0 10.0 0 0 0 10.0" Properties=species:S:1:pos:R:3 pbc="T T T" Time=274
Ar 2.958693 1.939063 2.329885
Ar 1.433282 2.350556 1.924194
Ar 2.584660 2.472963 1.093001
Ar 3.001086 2.201404 0.636574
Ar 2.885769 0.831463 1.284619
Ar 1.794479 0.982123 1.184169
Ar 2.425173 3.085970 2.059169
Ar 2.717911 1.623628 0.441784
Ar 1.311913 1.944475 3.285339
Ar 2.300862 3.205069 0.105065
10
Lattice="10.0 0 0 0 10.0 0 0 0 10.0" Properties=species:S:1:pos:R:3 pbc="T T T" Time=275
Ar 2.968207 1.943130 2.338204
Ar 1.437513 2.355623 1.930855
Ar 2.592288 2.478942 1.094314
Ar 3.010568 2.209227 0.638607
Ar 2.893291 0.834079 1.286418
Ar 1.797887 0.982359 1.187578
Ar 2.432304 3.094852 2.064076
Ar 2.724209 1.625944 0.442649
Ar 1.315723 1.949600 3.293924
Ar 2.309224 3.213765 0.105340
10
Lattice="10.0 0 0 0 10.0 0 0 0 10.0" Properties=species:S:1:pos:R:3 pbc="T T T" Time=276
Ar 2.977721 1.947198 2.346523
Ar 1.441744 2.360689 1.937517
Ar 2.599916 2.484921 1.095627
Ar 3.020050 2.217049 0.640641
Ar 2.900813 0.836696 1.288217
Ar 1.801295 0.982596 1.190988
Ar 2.439434 3.103733 2.068983
Ar 2.730508 1.628261 0.443514
Ar 1.319532 1.954725 3.302509
Ar 2.317586 3.222461 0.105614
10
Lattice="10.0 0 0 0 10.0 0 0 0 10.0" Properties=species:S:1:pos:R:3 pbc="T T T" Time=277
Ar 2.987235 1.951266 2.354842
Ar 1.445975 2.365756 1.944178
Ar 2.607544 2.490900 1.096940
Ar 3.029532 2.224871 0.642674
Ar 2.908335 0.839312 1.290017
Ar 1.804703 0.982832 1.194398
Ar 2.446565 3.112615 2.073890
Ar 2.736806 1.630577 0.444379
Ar 1.323341 1.959850 3.311094
Ar 2.325948 3.231157 0.105889
10
Lattice="10.0 0 0 0 10.0 0 0 0 10.0" Properties=species:S:1:pos:R:3 pbc="T T T" Time=278
Ar 2.996749 1.955333 2.363161
Ar 1.450206 2.370823 1.950840
Ar 2.615172 2.496879 1.098253
Ar 3.039015 2.232693 0.644708
Ar 2.915857 0.841929 1.291816
Ar 1.808111 0.983068 1.197807
Ar 2.453696 3.121496 2.078797
Ar 2.743105 1.632894 0.445245
Ar 1.327150 1.964976 3.319679
Ar 2.334310 3.239853 0.106164
10
Lattice="10.0 0 0 0 10.0 0 0 0 10.0" Properties=species:S:1:pos:R:3 pbc="T T T" Time=279
Ar 3.006263 1.959401 2.371480
Ar 1.454438 2.375889 1.957501
Ar 2.622800 2.502858 1.099566
Ar 3.048497 2.240515 0.646741
Ar 2.923379 0.844546 1.293616
Ar 1.811520 0.983305 1.201217
Ar 2.460826 3.130377 2.083705
Ar 2.749403 1.635210 0.446110
Ar 1.330959 1.970101 3.328264
Ar 2.342672 3.248549 0.106438
10
Lattice="10.0 0 0 0 10.0 0 0 0 10.0" Properties=species:S:1:pos:R:3 pbc="T T T" Time=280
Ar 3.015777 1.963468 2.379799
Ar 1.458669 2.380956 1.964163
Ar 2.630428 2.508837 1.100879
Ar 3.057979 2.248337 0.648774
Ar 2.930901 0.847162 1.295415
Ar 1.814928 0.983541 1.204626
Ar 2.467957 3.139259 2.088612
Ar 2.755702 1.637527 0.446975
Ar 1.334768 1.975226 3.336848
Ar 2.351034 3.257245 0.106713
10
Lattice="10.0 0 0 0 10.0 0 0 0 10.0" Properties=species:S:1:pos:R:3 pbc="T T T" Time=281
Ar 3.025291 1.967536 2.388118
Ar 1.462900 2.386023 1.970824
Ar 2.638056 2.514816 1.102192
Ar 3.067461 2.256159 0.650808
Ar 2.938423 0.849779 1.297215
Ar 1.818336 0.983778 1.208036
Ar 2.475088 3.148140 2.093519
Ar 2.762000 1.639843 0.447840
Ar 1.338578 1.980352 3.345433
Ar 2.359396 3.265941 0.106987
10
Lattice="10.0 0 0 0 10.0 0 0 0 10.0" Properties=species:S:1:pos:R:3 pbc="T T T" Time=282
Ar 3.034805 1.971604 2.396437
Ar 1.467131 2.391089 1.977486
Ar 2.645684 2.520795 1.103505
Ar 3.076944 2.263981 0.652841
Ar 2.945945 0.852395 1.299014
Ar 1.821744 0.984014 1.211446
Ar 2.482218 3.157021 2.098426
Ar 2.768299 1.642160 0.448705
Ar 1.342387 1.985477 3.354018
Ar 2.367758 3.274637 0.107262
10
Lattice="10.0 0 0 0 10.0 0 0 0 10.0" Properties=species:S:1:pos:R:3 pbc="T T T" Time=283
Ar 3.044319 1.975671 2.404756
Ar 1.471362 2.396156 1.984148
Ar 2.653312 2.526774 1.104818
Ar 3.086426 2.271803 0.654874
Ar 2.953468 0.855012 1.300813
Ar 1.825152 0.984251 1.214855
Ar 2.489349 3.165903 2.103333
Ar 2.774597 1.644476 0.449571
Ar 1.346196 1.990602 3.362603
Ar 2.376120 3.283333 0.107537
10
Lattice="10.0 0 0 0 10.0 0 0 0 10.0" Properties=species:S:1:pos:R:3 pbc="T T T" Time=284
Ar 3.053833 1.979739 2.413075
Ar 1.475593 2.401223 1.990809
Ar 2.660939 2.532754 1.106131
Ar 3.095908 2.279625 0.656908
Ar 2.960990 0.857628 1.302613
Ar 1.828560 0.984487 1.218265
Ar 2.496479 3.174784 2.108240
Ar 2.780896 1.646793 0.450436
Ar 1.350005 1.995728 3.371188
Ar 2.384481 3.292029 0.107811
10
Lattice="10.0 0 0 0 10.0 0 0 0 10.0" Properties=species:S:1:pos:R:3 pbc="T T T" Time=285
Ar 3.063347 1.983806 2.421394
Ar 1.479824 2.406289 1.997471
Ar 2.668567 2.538733 1.107444
Ar 3.105390 2.287447 0.658941
Ar 2.968512 0.860245 1.304412
Ar 1.831968 0.984724 1.221674
Ar 2.503610 3.183666 2.113147
Ar 2.787194 1.649109 0.451301
Ar 1.353814 2.000853 3.379773
Ar 2.392843 3.300725 0.108086
10
Lattice="10.0 0 0 0 10.0 0 0 0 10.0" Properties=species:S:1:pos:R:3 pbc="T T T" Time=286
Ar 3.072861 1.987874 2.429713
Ar 1.484056 2.411356 2.004132
Ar 2.676195 2.544712 1.108757
Ar 3.114872 2.295269 0.660974
Ar 2.976034 0.862862 1.306212
Ar 1.835376 0.984960 1.225084
Ar 2.510741 3.192547 2.118054
Ar 2.793493 1.651426 0.452166
Ar 1.357624 2.005978 3.388358
Ar 2.401205 3.309421 0.108360
10
Lattice="10.0 0 0 0 10.0 0 0 0 10.0" Properties=species:S:1:pos:R:3 pbc="T T T" Time=287
Ar 3.082376 1.991942 2.438032
Ar 1.488287 2.416422 2.010794
Ar 2.683823 2.550691 1.110070
Ar 3.124355 2.303091 0.663008
Ar 2.983556 0.865478 1.308011
Ar 1.838784 0.985197 1.228494
Ar 2.517871 3.201428 2.122961
Ar 2.799791 1.653742 0.453031
Ar 1.361433 2.011104 3.396943
Ar 2.409567 3.318117 0.108635
10
Lattice="10.0 0 0 0 10.0 0 0 0 10.0" Properties=species:S:1:pos:R:3 pbc="T T T" Time=288
Ar 3.091890 1.996009 2.446351
Ar 1.492518 2.421489 2.017455
Ar 2.691451 2.556670 1.111383
Ar 3.133837 2.310914 0.665041
Ar 2.991078 0.868095 1.309811
Ar 1.842192 0.985433 1.231903
Ar 2.525002 3.210310 2.127868
Ar 2.806090 1.656059 0.453897
Ar 1.365242 2.016229 3.405528
Ar 2.417929 3.326813 0.108910
10
Lattice="10.0 0 0 0 10.0 0 0 0 10.0" Properties=species:S:1:pos:R:3 pbc="T T T" Time=289
Ar 3.101404 2.000077 2.454670
Ar 1.496749 2.426556 2.024117
Ar 2.699079 2.562649 1.112696
Ar 3.143319 2.318736 0.667074
Ar 2.998600 0.870711 1.311610
Ar 1.845600 0.985670 1.235313
Ar 2.532133 3.219191 2.132775
Ar 2.812388 1.658375 0.454762
Ar 1.369051 2.021354 3.414113
Ar 2.426291 3.335509 0.109184
10
Lattice="10.0 0 0 0 10.0 0 0 0 10.0" Properties=species:S:1:pos:R:3 pbc="T T T" Time=290
Ar 3.110918 2.004144 2.462989
Ar 1.500980 2.431622 2.030778
Ar 2.706707 2.568628 1.114009
Ar 3.152801 2.326558 0.669108
Ar 3.006122 0.873328 1.313409
Ar 1.849008 0.985906 1.238722
Ar 2.539263 3.228073 2.137682
Ar 2.818687 1.660692 0.455627
Ar 1.372860 2.026480 3.422697
Ar 2.434653 3.344205 0.109459
10
Lattice="10.0 0 0 0 10.0 0 0 0 10.0" Properties=species:S:1:pos:R:3 pbc="T T T" Time=291
Ar 3.120432 2.008212 2.471308
Ar 1.505211 2.436689 2.037440
Ar 2.714335 2.574607 1.115322
Ar 3.162283 2.334380 0.671141
Ar 3.013644 0.875944 1.315209
Ar 1.852417 0.986143 1.242132
Ar 2.546394 3.236954 2.142589
Ar 2.824985 1.663008 0.456492
Ar 1.376669 2.031605 3.431282
Ar 2.443015 3.352901 0.109734
10
Lattice="10.0 0 0 0 10.0 0 0 0 10.0" Properties=species:S:1:pos:R:3 pbc="T T T" Time=292
Ar 3.129946 2.012279 2.479627
Ar 1.509442 2.441756 2.044101
Ar 2.721963 2.580586 1.116635
Ar 3.171766 2.342202 0.673174
Ar 3.021166 0.878561 1.317008
Ar 1.855825 0.986379 1.245542
Ar 2.553524 3.245835 2.147496
Ar 2.831284 1.665325 0.457357
Ar 1.380479 2.036730 3.439867
Ar 2.451377 3.361596 0.110008
10
Lattice="10.0 0 0 0 10.0 0 0 0 10.0" Properties=species:S:1:pos:R:3 pbc="T T T" Time=293
Ar 3.139460 2.016347 2.487946
Ar 1.513673 2.446822 2.050763
Ar 2.729591 2.586565 1.117948
Ar 3.181248 2.350024 0.675208
Ar 3.028688 0.881178 1.318808
Ar 1.859233 0.986616 1.248951
Ar 2.560655 3.254717 2.152403
Ar 2.837582 1.667641 0.458223
Ar 1.384288 2.041856 3.448452
Ar 2.459739 3.370292 0.110283
10
Lattice="10.0 0 0 0 10.0 0 0 0 10.0" Properties=species:S:1:pos:R:3 pbc="T T T" Time=294
Ar 3.148974 2.020415 2.496265
Ar 1.517905 2.451889 2.057424
Ar 2.737219 2.592544 1.119261
Ar 3.190730 2.357846 0.677241
Ar 3.036211 0.883794 1.320607
Ar 1.862641 0.986852 1.252361
Ar 2.567786 3.263598 2.157310
Ar 2.843881 1.669958 0.459088
Ar 1.388097 2.046981 3.457037
Ar 2.468101 3.378988 0.110557
10
Lattice="10.0 0 0 0 10.0 0 0 0 10.0" Properties=species:S:1:pos:R:3 pbc="T T T" Time=295
Ar 3.158488 2.024482 2.504584
Ar 1.522136 2.456956 2.064086
Ar 2.744847 2.598523 1.120574
Ar 3.200212 2.365668 0.679275
Ar 3.043733 0.886411 1.322407
Ar 1.866049 0.987089 1.255770
Ar 2.574916 3.272480 2.162217
Ar 2.850179 1.672274 0.459953
Ar 1.391906 2.052106 3.465622
Ar 2.476463 3.387684 0.110832
10
Lattice="10.0 0 0 0 10.0 0 0 0 10.0" Properties=species:S:1:pos:R:3 pbc="T T T" Time=296
Ar 3.168002 2.028550 2.512903
Ar 1.526367 2.462022 2.070748
Ar 2.752475 2.604502 1.121887
Ar 3.209694 2.373490 0.681308
Ar 3.051255 0.889027 1.324206
Ar 1.869457 0.987325 1.259180
Ar 2.582047 3.281361 2.167124
Ar 2.856478 1.674591 0.460818
Ar 1.395715 2.057232 3.474207
Ar 2.484825 3.396380 0.111107
10
Lattice="10.0 0 0 0 10.0 0 0 0 10.0" Properties=species:S:1:pos:R:3 pbc="T T T" Time=297
Ar 3.177516 2.032617 2.521222
Ar 1.530598 2.467089 2.077409
Ar 2.760103 2.610482 1.123200
Ar 3.219177 2.381312 0.683341
Ar 3.058777 0.891644 1.326005
Ar 1.872865 0.987561 1.262590
Ar 2.589178 3.290242 2.172031
Ar 2.862776 1.676907 0.461683
Ar 1.399524 2.062357 3.482792
Ar 2.493187 3.405076 0.111381
10
Lattice="10.0 0 0 0 10.0 0 0 0 10.0" Properties=species:S:1:pos:R:3 pbc="T T T" Time=298
Ar 3.187030 2.036685 2.529541
Ar 1.534829 2.472156 2.084071
Ar 2.767731 2.616461 1.124513
Ar 3.228659 2.389134 0.685375
Ar 3.066299 0.894260 1.327805
Ar 1.876273 0.987798 1.265999
Ar 2.596308 3.299124 2.176938
Ar 2.869075 1.679224 0.462549
Ar 1.403334 2.067482 3.491377
Ar 2.501549 3.413772 0.111656
10
Lattice="10.0 0 0 0 10.0 0 0 0 10.0" Properties=species:S:1:pos:R:3 pbc="T T T" Time=299
Ar 3.196544 2.040753 2.537860
Ar 1.539060 2.477222 2.090732
Ar 2.775359 2.622440 1.125826
Ar 3.238141 2.396956 0.687408
Ar 3.073821 0.896877 1.329604
Ar 1.879681 0.988034 1.269409
Ar 2.603439 3.308005 2.181846
Ar 2.875373 1.681540 0.463414
Ar 1.407143 2.072608 3.499961
Ar 2.509911 3.422468 0.111931
10
Lattice="10.0 0 0 0 10.0 0 0 0 10.0" Properties=species:S:1:pos:R:3 pbc="T T T" Time=300
Ar 3.206058 2.044820 2.546179
Ar 1.543291 2.482289 2.097394
Ar 2.782987 2.628419 1.127139
Ar 3.247623 2.404778 0.689441
Ar 3.081343 0.899494 1.331404
Ar 1.883089 0.988271 1.272818
Ar 2.610569 3.316887 2.186753
Ar 2.881672 1.683857 0.464279
Ar 1.410952 2.077733 3.508546
Ar 2.518273 3.431164 0.112205
10
Lattice="10.0 0 0 0 10.0 0 0 0 10.0" Properties=species:S:1:pos:R:3 pbc="T T T" Time=301
Ar 3.215572 2.048888 2.554498
Ar 1.547523 2.487355 2.104055
Ar 2.790615 2.634398 1.128452
Ar 3.257105 2.412601 0.691475
Ar 3.088865 0.902110 1.333203
Ar 1.886497 0.988507 1.276228
Ar 2.617700 3.325768 2.191660
Ar 2.887970 1.686173 0.465144
Ar 1.414761 2.082858 3.517131
Ar 2.526635 3.439860 0.112480
10
Lattice="10.0 0 0 0 10.0 0 0 0 10.0" Properties=species:S:1:pos:R:3 pbc="T T T" Time=302
Ar 3.225086 2.052955 2.562817
Ar 1.551754 2.492422 2.110717
Ar 2.798243 2.640377 1.129765
Ar 3.266588 2.420423 0.693508
Ar 3.096387 0.904727 1.335003
Ar 1.889905 0.988744 1.279638
Ar 2.624831 3.334649 2.196567
Ar 2.894269 1.688489 0.466009
Ar 1.418570 2.087984 3.525716
Ar 2.534997 3.448556 0.112754
10
Lattice="10.0 0 0 0 10.0 0 0 0 10.0" Properties=species:S:1:pos:R:3 pbc="T T T" Time=303
Ar 3.234600 2.057023 2.571136
Ar 1.555985 2.497489 2.117378
Ar 2.805871 2.646356 1.131078
Ar 3.276070 2.428245 0.695541
Ar 3.103909 0.907343 1.336802
Ar 1.893314 0.988980 1.283047
Ar 2.631961 3.343531 2.201474
Ar 2.900567 1.690806 0.466875
Ar 1.422380 2.093109 3.534301
Ar 2.543359 3.457252 0.113029
10
Lattice="10.0 0 0 0 10.0 0 0 0 10.0" Properties=species:S:1:pos:R:3 pbc="T T T" Time=304
Ar 3.244114 2.061091 2.579455
Ar 1.560216 2.502555 2.124040
Ar 2.813499 2.652335 1.132391
Ar 3.285552 2.436067 0.697575
Ar 3.111431 0.909960 1.338601
Ar 1.896722 0.989217 1.286457
Ar 2.639092 3.352412 2.206381
Ar 2.906866 1.693122 0.467740
Ar 1.426189 2.098234 3.542886
Ar 2.551721 3.465948 0.113304
10
Lattice="10.0 0 0 0 10.0 0 0 0 10.0" Properties=species:S:1:pos:R:3 pbc="T T T" Time=305
Ar 3.253628 2.065158 2.587774
Ar 1.564447 2.507622 2.130701
Ar 2.821127 2.658314 1.133704
Ar 3.295034 2.443889 0.699608
Ar 3.118953 0.912576 1.340401
Ar 1.900130 0.989453 1.289866
Ar 2.646223 3.361293 2.211288
Ar 2.913164 1.695439 0.468605
Ar 1.429998 2.103359 3.551471
Ar 2.560083 3.474644 0.113578
10
Lattice="10.0 0 0 0 10.0 0 0 0 10.0" Properties=species:S:1:pos:R:3 pbc="T T T" Time=306
Ar 3.263142 2.069226 2.596093
Ar 1.568678 2.512689 2.137363
Ar 2.828755 2.664293 1.135017
Ar 3.304516 2.451711 0.701641
Ar 3.126476 0.915193 1.342200
Ar 1.903538 0.989690 1.293276
Ar 2.653353 3.370175 2.216195
Ar 2.919463 1.697755 0.469470
Ar 1.433807 2.108485 3.560056
Ar 2.568445 3.483340 0.113853
10
Lattice="10.0 0 0 0 10.0 0 0 0 10.0" Properties=species:S:1:pos:R:3 pbc="T T T" Time=307
Ar 3.272656 2.073293 2.604412
Ar 1.572909 2.517755 2.144025
Ar 2.836383 2.670272 1.136330
Ar 3.313999 2.459533 0.703675
Ar 3.133998 0.917810 1.344000
Ar 1.906946 0.989926 1.296686
Ar 2.660484 3.379056 2.221102
Ar 2.925761 1.700072 0.470335
Ar 1.437616 2.113610 3.568641
Ar 2.576807 3.492036 0.114127
10
Lattice="10.0 0 0 0 10.0 0 0 0 10.0" Properties=species:S:1:pos:R:3 pbc="T T T" Time=308
Ar 3.282170 2.077361 2.612731
Ar 1.577140 2.522822 2.150686
Ar 2.844011 2.676251 1.137643
Ar 3.323481 2.467355 0.705708
Ar 3.141520 0.920426 1.345799
Ar 1.910354 0.990163 1.300095
Ar 2.667615 3.387938 2.226009
Ar 2.932060 1.702388 0.471201
Ar 1.441425 2.118735 3.577226
Ar 2.585169 3.500732 0.114402
10
Lattice="10.0 0 0 0 10.0 0 0 0 10.0" Properties=species:S:1:pos:R:3 pbc="T T T" Time=309
Ar 3.291685 2.081429 2.621050
Ar 1.581372 2.527889 2.157348
Ar 2.851639 2.682230 1.138956
Ar 3.332963 2.475177 0.707741
Ar 3.149042 0.923043 1.347598
Ar 1.913762 0.990399 1.303505
Ar 2.674745 3.396819 2.230916
Ar 2.938358 1.704705 0.472066
Ar 1.445235 2.123861 3.585810
Ar 2.593531 3.509428 0.114677
10
Lattice="10.0 0 0 0 10.0 0 0 0 10.0" Properties=species:S:1:pos:R:3 pbc="T T T" Time=310
Ar 3.301199 2.085496 2.629369
Ar 1.585603 2.532955 2.164009
Ar 2.859267 2.688210 1.140269
Ar 3.342445 2.482999 0.709775
Ar 3.156564 0.925659 1.349398
Ar 1.917170 0.990636 1.306914
Ar 2.681876 3.405700 2.235823
Ar 2.944657 1.707021 0.472931
Ar 1.449044 2.128986 3.594395
Ar 2.601893 3.518124 0.114951
10
Lattice="10.0 0 0 0 10.0 0 0 0 10.0" Properties=species:S:1:pos:R:3 pbc="T T T" Time=311
Ar 3.310713 2.089564 2.637688
Ar 1.589834 2.538022 2.170671
Ar 2.866895 2.694189 1.141582
Ar 3.351927 2.490821 0.711808
Ar 3.164086 0.928276 1.351197
Ar 1.920578 0.990872 1.310324
Ar 2.689006 3.414582 2.240730
Ar 2.950955 1.709338 0.473796
Ar 1.452853 2.134111 3.602980
Ar 2.610254 3.526820 0.115226
10
Lattice="10.0 0 0 0 10.0 0 0 0 10.0" Properties=species:S:1:pos:R:3 pbc="T T T" Time=312
Ar 3.320227 2.093631 2.646007
Ar 1.594065 2.543089 2.177332
Ar 2.874523 2.700168 1.142895
Ar 3.361410 2.498643 0.713842
Ar 3.171608 0.930892 1.352997
Ar 1.923986 0.991109 1.313734
Ar 2.696137 3.423463 2.245637
Ar 2.957254 1.711654 0.474661
Ar 1.456662 2.139237 3.611565
Ar 2.618616 3.535516 0.115501
10
Lattice="10.0 0 0 0 10.0 0 0 0 10.0" Properties=species:S:1:pos:R:3 pbc="T T T" Time=313
Ar 3.329741 2.097699 2.654326
Ar 1.598296 2.548155 2.183994
Ar 2.882151 2.706147 1.144208
Ar 3.370892 2.506465 0.715875
Ar 3.179130 0.933509 1.354796
Ar 1.927394 0.991345 1.317143
Ar 2.703268 3.432345 2.250544
Ar 2.963552 1.713971 0.475527
Ar 1.460471 2.144362 3.620150
Ar 2.626978 3.544212 0.115775
10
Lattice="10.0 0 0 0 10.0 0 0 0 10.0" Properties=species:S:1:pos:R:3 pbc="T T T" Time=314
Ar 3.339255 2.101767 2.662645
Ar 1.602527 2.553222 2.190655
Ar 2.889779 2.712126 1.145521
Ar 3.380374 2.514288 0.717908
Ar 3.186652 0.936126 1.356596
Ar 1.930802 0.991582 1.320553
Ar 2.710398 3.441226 2.255451
Ar 2.969851 1.716287 0.476392
Ar 1.464280 2.149487 3.628735
Ar 2.635340 3.552907 0.116050
10
Lattice="10.0 0 0 0 10.0 0 0 0 10.0" Properties=species:S:1:pos:R:3 pbc="T T T" Time=315
Ar 3.348769 2.105834 2.670964
Ar 1.606758 2.558288 2.197317
Ar 2.897407 2.718105 1.146834
Ar 3.389856 2.522110 0.719942
Ar 3.194174 0.938742 1.358395
Ar 1.934211 0.991818 1.323962
Ar 2.717529 3.450107 2.260358
Ar 2.976149 1.718604 0.477257
Ar 1.468090 2.154613 3.637320
Ar 2.643702 3.561603 0.116324
10
Lattice="10.0 0 0 0 10.0 0 0 0 10.0" Properties=species:S:1:pos:R:3 pbc="T T T" Time=316
Ar 3.358283 2.109902 2.679283
Ar 1.610990 2.563355 2.203978
Ar 2.905035 2.724084 1.148147
Ar 3.399338 2.529932 0.721975
Ar 3.201696 0.941359 1.360194
Ar 1.937619 0.992054 1.327372
Ar 2.724660 3.458989 2.265265
Ar 2.982448 1.720920 0.478122
Ar 1.471899 2.159738 3.645905
Ar 2.652064 3.570299 0.116599
10
Lattice="10.0 0 0 0 10.0 0 0 0 10.0" Properties=species:S:1:pos:R:3 pbc="T T T" Time=317
Ar 3.367797 2.113969 2.687602
Ar 1.615221 2.568422 2.210640
Ar 2.912663 2.730063 1.149460
Ar 3.408821 2.537754 0.724008
Ar 3.209218 0.943975 1.361994
Ar 1.941027 0.992291 1.330782
Ar 2.731790 3.467870 2.270172
Ar 2.988746 1.723237 0.478988
Ar 1.475708 2.164863 3.654490
Ar 2.660426 3.578995 0.116874
10
Lattice="10.0 0 0 0 10.0 0 0 0 10.0" Properties=species:S:1:pos:R:3 pbc="T T T" Time=318
Ar 3.377311 2.118037 2.695921
Ar 1.619452 2.573488 2.217301
Ar 2.920291 2.736042 1.150773
Ar 3.418303 2.545576 0.726042
Ar 3.216741 0.946592 1.363793
Ar 1.944435 0.992527 1.334191
Ar 2.738921 3.476752 2.275079
Ar 2.995045 1.725553 0.479853
Ar 1.479517 2.169989 3.663075
Ar 2.668788 3.587691 0.117148
10
Lattice="10.0 0 0 0 10.0 0 0 0 10.0" Properties=species:S:1:pos:R:3 pbc="T T T" Time=319
Ar 3.386825 2.122104 2.704240
Ar 1.623683 2.578555 2.223963
Ar 2.927919 2.742021 1.152086
Ar 3.427785 2.553398 0.728075
Ar 3.224263 0.949208 1.365593
Ar 1.947843 0.992764 1.337601
Ar 2.746051 3.485633 2.279986
Ar 3.001343 1.727870 0.480718
Ar 1.483326 2.175114 3.671659
Ar 2.677150 3.596387 0.117423
10
Lattice="10.0 0 0 0 10.0 0 0 0 10.0" Properties=species:S:1:pos:R:3 pbc="T T T" Time=320
Ar 3.396339 2.126172 2.712559
Ar 1.627914 2.583622 2.230625
Ar 2.935547 2.748000 1.153399
Ar 3.437267 2.561220 0.730108
Ar 3.231785 0.951825 1.367392
Ar 1.951251 0.993000 1.341010
Ar 2.753182 3.494514 2.284894
Ar 3.007642 1.730186 0.481583
Ar 1.487136 2.180239 3.680244
Ar 2.685512 3.605083 0.117697
10
Lattice="10.0 0 0 0 10.0 0 0 0 10.0" Properties=species:S:1:pos:R:3 pbc="T T T" Time=321
Ar 3.405853 2.130240 2.720878
Ar 1.632145 2.588688 2.237286
Ar 2.943175 2.753979 1.154712
Ar 3.446749 2.569042 0.732142
Ar 3.239307 0.954442 1.369192
Ar 1.954659 0.993237 1.344420
Ar 2.760313 3.503396 2.289801
Ar 3.013940 1.732503 0.482448
Ar 1.490945 2.185365 3.688829
Ar 2.693874 3.613779 0.117972
10
Lattice="10.0 0 0 0 10.0 0 0 0 10.0" Properties=species:S:1:pos:R:3 pbc="T T T" Time=322
Ar 3.415367 2.134307 2.729197
Ar 1.636376 2.593755 2.243948
Ar 2.950803 2.759958 1.156025
Ar 3.456232 2.576864 0.734175
Ar 3.246829 0.957058 1.370991
Ar 1.958067 0.993473 1.347830
Ar 2.767443 3.512277 2.294708
Ar 3.020239 1.734819 0.483314
Ar 1.494754 2.190490 3.697414
Ar 2.702236 3.622475 0.118247
10
Lattice="10.0 0 0 0 10.0 0 0 0 10.0" Properties=species:S:1:pos:R:3 pbc="T T T" Time=323
Ar 3.424881 2.138375 2.737516
Ar 1.640608 2.598822 2.250609
Ar 2.958431 2.765938 1.157338
Ar 3.465714 2.584686 0.736208
Ar 3.254351 0.959675 1.372790
Ar 1.961475 0.993710 1.351239
Ar 2.774574 3.521159 2.299615
Ar 3.026537 1.737136 0.484179
Ar 1.498563 2.195615 3.705999
Ar 2.710598 3.631171 0.118521
10
Lattice="10.0 0 0 0 10.0 0 0 0 10.0" Properties=species:S:1:pos:R:3 pbc="T T T" Time=324
Ar 3.434395 2.142442 2.745835
Ar 1.644839 2.603888 2.257271
Ar 2.966059 2.771917 1.158651
Ar 3.475196 2.592508 0.738242
Ar 3.261873 0.962291 1.374590
Ar 1.964883 0.993946 1.354649
Ar 2.781705 3.530040 2.304522
Ar 3.032836 1.739452 0.485044
Ar 1.502372 2.200741 3.714584
Ar 2.718960 3.639867 0.118796
10
Lattice="10.0 0 0 0 10.0 0 0 0 10.0" Properties=species:S:1:pos:R:3 pbc="T T T" Time=325
Ar 3.443909 2.146510 2.754154
Ar 1.649070 2.608955 2.263932
Ar 2.973687 2.777896 1.159964
Ar 3.484678 2.600330 0.740275
Ar 3.269395 0.964908 1.376389
Ar 1.968291 0.994183 1.358058
Ar 2.788835 3.538921 2.309429
Ar 3.039134 1.741769 0.485909
Ar 1.506181 2.205866 3.723169
Ar 2.727322 3.648563 0.119071
10
Lattice="10.0 0 0 0 10.0 0 0 0 10.0" Properties=species:S:1:pos:R:3 pbc="T T T" Time=326
Ar 3.453423 2.150578 2.762473
Ar 1.653301 2.614022 2.270594
Ar 2.981315 2.783875 1.161277
Ar 3.494161 2.608152 0.742308
Ar 3.276917 0.967524 1.378189
Ar 1.971699 0.994419 1.361468
Ar 2.795966 3.547803 2.314336
Ar 3.045433 1.744085 0.486774
Ar 1.509991 2.210991 3.731754
Ar 2.735684 3.657259 0.119345
10
Lattice="10.0 0 0 0 10.0 0 0 0 10.0" Properties=species:S:1:pos:R:3 pbc="T T T" Time=327
Ar 3.462937 2.154645 2.770792
Ar 1.657532 2.619088 2.277255
Ar 2.988943 2.789854 1.162590
Ar 3.503643 2.615975 0.744342
Ar 3.284439 0.970141 1.379988
Ar 1.975108 0.994656 1.364878
Ar 2.803096 3.556684 2.319243
Ar 3.051731 1.746402 0.487640
Ar 1.513800 2.216117 3.740339
Ar 2.744046 3.665955 0.119620
10
Lattice="10.0 0 0 0 10.0 0 0 0 10.0" Properties=species:S:1:pos:R:3 pbc="T T T" Time=328
Ar 3.472451 2.158713 2.779111
Ar 1.661763 2.624155 2.283917
Ar 2.996571 2.795833 1.163903
Ar 3.513125 2.623797 0.746375
Ar 3.291961 0.972758 1.381788
Ar 1.978516 0.994892 1.368287
Ar 2.810227 3.565566 2.324150
Ar 3.058030 1.748718 0.488505
Ar 1.517609 2.221242 3.748923
Ar 2.752408 3.674651 0.119894
10
Lattice="10.0 0 0 0 10.0 0 0 0 10.0" Properties=species:S:1:pos:R:3 pbc="T T T" Time=329
Ar 3.481965 2.162780 2.787430
Ar 1.665994 2.629221 2.290578
Ar 3.004199 2.801812 1.165216
Ar 3.522607 2.631619 0.748409
Ar 3.299484 0.975374 1.383587
Ar 1.981924 0.995129 1.371697
Ar 2.817358 3.574447 2.329057
Ar 3.064328 1.751035 0.489370
Ar 1.521418 2.226367 3.757508
Ar 2.760770 3.683347 0.120169
10
Lattice="10.0 0 0 0 10.0 0 0 0 10.0" Properties=species:S:1:pos:R:3 pbc="T T T" Time=330
Ar 3.491479 2.166848 2.795749
Ar 1.670225 2.634288 2.297240
Ar 3.011827 2.807791 1.166529
Ar 3.532089 2.639441 0.750442
Ar 3.307006 0.977991 1.385386
Ar 1.985332 0.995365 1.375106
Ar 2.824488 3.583328 2.333964
Ar 3.070627 1.753351 0.490235
Ar 1.525227 2.231493 3.766093
Ar 2.769132 3.692043 0.120444
10
Lattice="10.0 0 0 0 10.0 0 0 0 10.0" Properties=species:S:1:pos:R:3 pbc="T T T" Time=331
Ar 3.500993 2.170916 2.804068
Ar 1.674457 2.639355 2.303902
Ar 3.019455 2.813770 1.167842
Ar 3.541572 2.647263 0.752475
Ar 3.314528 0.980607 1.387186
Ar 1.988740 0.995602 1.378516
Ar 2.831619 3.592210 2.338871
Ar 3.076925 1.755668 0.491100
Ar 1.529037 2.236618 3.774678
Ar 2.777494 3.700739 0.120718
10
Lattice="10.0 0 0 0 10.0 0 0 0 10.0" Properties=species:S:1:pos:R:3 pbc="T T T" Time=332
Ar 3.510508 2.174983 2.812387
Ar 1.678688 2.644421 2.310563
Ar 3.027083 2.819749 1.169155
Ar 3.551054 2.655085 0.754509
Ar 3.322050 0.983224 1.388985
Ar 1.992148 0.995838 1.381926
Ar 2.838750 3.601091 2.343778
Ar 3.083224 1.757984 0.491966
Ar 1.532846 2.241743 3.783263
Ar 2.785856 3.709435 0.120993
10
Lattice="10.0 0 0 0 10.0 0 0 0 10.0" Properties=species:S:1:pos:R:3 pbc="T T T" Time=333
Ar 3.520022 2.179051 2.820706
Ar 1.682919 2.649488 2.317225
Ar 3.034711 2.825728 1.170468
Ar 3.560536 2.662907 0.756542
Ar 3.329572 0.985840 1.390785
Ar 1.995556 0.996075 1.385335
Ar 2.845880 3.609972 2.348685
Ar 3.089522 1.760301 0.492831
Ar 1.536655 2.246868 3.791848
Ar 2.794218 3.718131 0.121267
10
Lattice="10.0 0 0 0 10.0 0 0 0 10.0" Properties=species:S:1:pos:R:3 pbc="T T T" Time=334
Ar 3.529536 2.183118 2.829025
Ar 1.687150 2.654555 2.323886
Ar 3.042339 2.831707 1.171781
Ar 3.570018 2.670729 0.758575
Ar 3.337094 0.988457 1.392584
Ar 1.998964 0.996311 1.388745
Ar 2.853011 3.618854 2.353592
Ar 3.095821 1.762617 0.493696
Ar 1.540464 2.251994 3.800433
Ar 2.802580 3.726827 0.121542
10
Lattice="10.0 0 0 0 10.0 0 0 0 10.0" Properties=species:S:1:pos:R:3 pbc="T T T" Time=335
Ar 3.539050 2.187186 2.837344
Ar 1.691381 2.659621 2.330548
Ar 3.049967 2.837686 1.173094
Ar 3.579500 2.678551 0.760609
Ar 3.344616 0.991074 1.394384
Ar 2.002372 0.996547 1.392154
Ar 2.860141 3.627735 2.358499
Ar 3.102119 1.764934 0.494561
Ar 1.544273 2.257119 3.809018
Ar 2.810942 3.735522 0.121817
10
Lattice="10.0 0 0 0 10.0 0 0 0 10.0" Properties=species:S:1:pos:R:3 pbc="T T T" Time=336
Ar 3.548564 2.191254 2.845663
Ar 1.695612 2.664688 2.337209
Ar 3.057595 2.843666 1.174407
Ar 3.588983 2.686373 0.762642
Ar 3.352138 0.993690 1.396183
Ar 2.005780 0.996784 1.395564
Ar 2.867272 3.636617 2.363406
Ar 3.108418 1.767250 0.495426
Ar 1.548082 2.262244 3.817603
Ar 2.819304 3.744218 0.122091
10
Lattice="10.0 0 0 0 10.0 0 0 0 10.0" Properties=species:S:1:pos:R:3 pbc="T T T" Time=337
Ar 3.558078 2.195321 2.853982
Ar 1.699843 2.669755 2.343871
Ar 3.065223 2.849645 1.175721
Ar 3.598465 2.694195 0.764675
Ar 3.359660 0.996307 1.397982
Ar 2.009188 0.997020 1.398974
Ar 2.874403 3.645498 2.368313
Ar 3.114716 1.769567 0.496292
Ar 1.551892 2.267370 3.826188
Ar 2.827666 3.752914 0.122366
10
Lattice="10.0 0 0 0 10.0 0 0 0 10.0" Properties=species:S:1:pos:R:3 pbc="T T T" Time=338
Ar 3.567592 2.199389 2.862301
Ar 1.704075 2.674821 2.350532
Ar 3.072851 2.855624 1.177034
Ar 3.607947 2.702017 0.766709
Ar 3.367182 0.998923 1.399782
Ar 2.012596 0.997257 1.402383
Ar 2.881533 3.654379 2.373220
Ar 3.121015 1.771883 0.497157
Ar 1.555701 2.272495 3.834772
Ar 2.836027 3.761610 0.122641
10
Lattice="10.0 0 0 0 10.0 0 0 0 10.0" Properties=species:S:1:pos:R:3 pbc="T T T" Time=339
Ar 3.577106 2.203456 2.870620
Ar 1.708306 2.679888 2.357194
Ar 3.080479 2.861603 1.178347
Ar 3.617429 2.709839 0.768742
Ar 3.374704 1.001540 1.401581
Ar 2.016005 0.997493 1.405793
Ar 2.888664 3.663261 2.378127
Ar 3.127313 1.774200 0.498022
Ar 1.559510 2.277620 3.843357
Ar 2.844389 3.770306 0.122915
10
Lattice="10.0 0 0 0 10.0 0 0 0 10.0" Properties=species:S:1:pos:R:3 pbc="T T T" Time=340
Ar 3.586620 2.207524 2.878939
Ar 1.712537 2.684954 2.363855
Ar 3.088107 2.867582 1.179660
Ar 3.626911 2.717662 0.770775
Ar 3.382226 1.004156 1.403381
Ar 2.019413 0.997730 1.409202
Ar 2.895795 3.672142 2.383034
Ar 3.133612 1.776516 0.498887
Ar 1.563319 2.282746 3.851942
Ar 2.852751 3.779002 0.123190
10
Lattice="10.0 0 0 0 10.0 0 0 0 10.0" Properties=species:S:1:pos:R:3 pbc="T T T" Time=341
Ar 3.596134 2.211592 2.887258
Ar 1.716768 2.690021 2.370517
Ar 3.095735 2.873561 1.180973
Ar 3.636394 2.725484 0.772809
Ar 3.389749 1.006773 1.405180
Ar 2.022821 0.997966 1.412612
Ar 2.902925 3.681024 2.387942
Ar 3.139910 1.778833 0.499752
Ar 1.567128 2.287871 3.860527
Ar 2.861113 3.787698 0.123464
10
Lattice="10.0 0 0 0 10.0 0 0 0 10.0" Properties=species:S:1:pos:R:3 pbc="T T T" Time=342
Ar 3.605648 2.215659 2.895577
Ar 1.720999 2.695088 2.377178
Ar 3.103363 2.879540 1.182286
Ar 3.645876 2.733306 0.774842
Ar 3.397271 1.009390 1.406979
Ar 2.026229 0.998203 1.416022
Ar 2.910056 3.689905 2.392849
Ar 3.146209 1.781149 0.500618
Ar 1.570937 2.292996 3.869112
Ar 2.869475 3.796394 0.123739
10
Lattice="10.0 0 0 0 10.0 0 0 0 10.0" Properties=species:S:1:pos:R:3 pbc="T T T" Time=343
Ar 3.615162 2.219727 2.903896
Ar 1.725230 2.700154 2.383840
Ar 3.110991 2.885519 1.183599
Ar 3.655358 2.741128 0.776875
Ar 3.404793 1.012006 1.408779
Ar 2.029637 0.998439 1.419431
Ar 2.917187 3.698786 2.397756
Ar 3.152507 1.783466 0.501483
Ar 1.574747 2.298122 3.877697
Ar 2.877837 3.805090 0.124014
10
Lattice="10.0 0 0 0 10.0 0 0 0 10.0" Properties=species:S:1:pos:R:3 pbc="T T T" Time=344
Ar 3.624676 2.223794 2.912215
Ar 1.729461 2.705221 2.390502
Ar 3.118619 2.891498 1.184912
Ar 3.664840 2.748950 0.778909
Ar 3.412315 1.014623 1.410578
Ar 2.033045 0.998676 1.422841
Ar 2.924317 3.707668 2.402663
Ar 3.158806 1.785782 0.502348
Ar 1.578556 2.303247 3.886282
Ar 2.886199 3.813786 0.124288
10
Lattice="10.0 0 0 0 10.0 0 0 0 10.0" Properties=species:S:1:pos:R:3 pbc="T T T" Time=345
Ar 3.634190 2.227862 2.920534
Ar 1.733692 2.710288 2.397163
Ar 3.126246 2.897477 1.186225
Ar 3.674322 2.756772 0.780942
Ar 3.419837 1.017239 1.412378
Ar 2.036453 0.998912 1.426250
Ar 2.931448 3.716549 2.407570
Ar 3.165104 1.788098 0.503213
Ar 1.582365 2.308372 3.894867
Ar 2.894561 3.822482 0.124563
10
Lattice="10.0 0 0 0 10.0 0 0 0 10.0" Properties=species:S:1:pos:R:3 pbc="T T T" Time=346
Ar 3.643704 2.231929 2.928853
Ar 1.737924 2.715354 2.403825
Ar 3.133874 2.903456 1.187538
Ar 3.683805 2.764594 0.782976
Ar 3.427359 1.019856 1.414177
Ar 2.039861 0.999149 1.429660
Ar 2.938578 3.725431 2.412477
Ar 3.171403 1.790415 0.504078
Ar 1.586174 2.313498 3.903452
Ar 2.902923 3.831178 0.124838
10
Lattice="10.0 0 0 0 10.0 0 0 0 10.0" Properties=species:S:1:pos:R:3 pbc="T T T" Time=347
Ar 3.653218 2.235997 2.937172
Ar 1.742155 2.720421 2.410486
Ar 3.141502 2.909435 1.188851
Ar 3.693287 2.772416 0.785009
Ar 3.434881 1.022472 1.415977
Ar 2.043269 0.999385 1.433070
Ar 2.945709 3.734312 2.417384
Ar 3.177701 1.792731 0.504944
Ar 1.589983 2.318623 3.912036
Ar 2.911285 3.839874 0.125112
10
Lattice="10.0 0 0 0 10.0 0 0 0 10.0" Properties=species:S:1:pos:R:3 pbc="T T T" Time=348
Ar 3.662732 2.240065 2.945491
Ar 1.746386 2.725488 2.417148
Ar 3.149130 2.915414 1.190164
Ar 3.702769 2.780238 0.787042
Ar 3.442403 1.025089 1.417776
Ar 2.046677 0.999622 1.436479
Ar 2.952840 3.743193 2.422291
Ar 3.184000 1.795048 0.505809
Ar 1.593793 2.323748 3.920621
Ar 2.919647 3.848570 0.125387
10
Lattice="10.0 0 0 0 10.0 0 0 0 10.0" Properties=species:S:1:pos:R:3 pbc="T T T" Time=349
Ar 3.672246 2.244132 2.953810
Ar 1.750617 2.730554 2.423809
Ar 3.156758 2.921394 1.191477
Ar 3.712251 2.788060 0.789076
Ar 3.449925 1.027706 1.419575
Ar 2.050085 0.999858 1.439889
Ar 2.959970 3.752075 2.427198
Ar 3.190298 1.797364 0.506674
Ar 1.597602 2.328874 3.929206
Ar 2.928009 3.857266 0.125661
10
Lattice="10.0 0 0 0 10.0 0 0 0 10.0" Properties=species:S:1:pos:R:3 pbc="T T T" Time=350
Ar 3.681760 2.248200 2.962129
Ar 1.754848 2.735621 2.430471
Ar 3.164386 2.927373 1.192790
Ar 3.721733 2.795882 0.791109
Ar 3.457447 1.030322 1.421375
Ar 2.053494 1.000095 1.443298
Ar 2.967101 3.760956 2.432105
Ar 3.196597 1.799681 0.507539
Ar 1.601411 2.333999 3.937791
Ar 2.936371 3.865962 0.125936
10
Lattice="10.0 0 0 0 10.0 0 0 0 10.0" Properties=species:S:1:pos:R:3 pbc="T T T" Time=351
Ar 3.691274 2.252267 2.970448
Ar 1.759079 2.740688 2.437132
Ar 3.172014 2.933352 1.194103
Ar 3.731216 2.803704 0.793142
Ar 3.464969 1.032939 1.423174
Ar 2.056902 1.000331 1.446708
Ar 2.974232 3.769838 2.437012
Ar 3.202895 1.801997 0.508404
Ar 1.605220 2.339124 3.946376
Ar 2.944733 3.874658 0.126211
10
Lattice="10.0 0 0 0 10.0 0 0 0 10.0" Properties=species:S:1:pos:R:3 pbc="T T T" Time=352
Ar 3.700788 2.256335 2.978767
Ar 1.763310 2.745754 2.443794
Ar 3.179642 2.939331 1.195416
Ar 3.740698 2.811526 0.795176
Ar 3.472491 1.035555 1.424974
Ar 2.060310 1.000568 1.450118
Ar 2.981362 3.778719 2.441919
Ar 3.209194 1.804314 0.509270
Ar 1.609029 2.344250 3.954961
Ar 2.953095 3.883354 0.126485
10
Lattice="10.0 0 0 0 10.0 0 0 0 10.0" Properties=species:S:1:pos:R:3 pbc="T T T" Time=353
Ar 3.710302 2.260403 2.987086
Ar 1.767542 2.750821 2.450455
Ar 3.187270 2.945310 1.196729
Ar 3.750180 2.819349 0.797209
Ar 3.480014 1.038172 1.426773
Ar 2.063718 1.000804 1.453527
Ar 2.988493 3.787600 2.446826
Ar 3.215492 1.806630 0.510135
Ar 1.612838 2.349375 3.963546
Ar 2.961457 3.892050 0.126760
10
Lattice="10.0 0 0 0 10.0 0 0 0 10.0" Properties=species:S:1:pos:R:3 pbc="T T T" Time=354
Ar 3.719817 2.264470 2.995405
Ar 1.771773 2.755887 2.457117
Ar 3.194898 2.951289 1.198042
Ar 3.759662 2.827171 0.799242
Ar 3.487536 1.040788 1.428573
Ar 2.067126 1.001040 1.456937
Ar 2.995623 3.796482 2.451733
Ar 3.221791 1.808947 0.511000
Ar 1.616648 2.354500 3.972131
Ar 2.969819 3.900746 0.127034
10
Lattice="10.0 0 0 0 10.0 0 0 0 10.0" Properties=species:S:1:pos:R:3 pbc="T T T" Time=355
Ar 3.729331 2.268538 3.003724
Ar 1.776004 2.760954 2.463778
Ar 3.202526 2.957268 1.199355
Ar 3.769144 2.834993 0.801276
Ar 3.495058 1.043405 1.430372
Ar 2.070534 1.001277 1.460346
Ar 3.002754 3.805363 2.456640
Ar 3.228089 1.811263 0.511865
Ar 1.620457 2.359626 3.980716
Ar 2.978181 3.909442 0.127309
10
Lattice="10.0 0 0 0 10.0 0 0 0 10.0" Properties=species:S:1:pos:R:3 pbc="T T T" Time=356
Ar 3.738845 2.272605 3.012043
Ar 1.780235 2.766021 2.470440
Ar 3.210154 2.963247 1.200668
Ar 3.778627 2.842815 0.803309
Ar 3.502580 1.046021 1.432171
Ar 2.073942 1.001513 1.463756
Ar 3.009885 3.814245 2.461547
Ar 3.234388 1.813580 0.512730
Ar 1.624266 2.364751 3.989301
Ar 2.986543 3.918138 0.127584
10
Lattice="10.0 0 0 0 10.0 0 0 0 10.0" Properties=species:S:1:pos:R:3 pbc="T T T" Time=357
Ar 3.748359 2.276673 3.020362
Ar 1.784466 2.771087 2.477102
Ar 3.217782 2.969226 1.201981
Ar 3.788109 2.850637 0.805342
Ar 3.510102 1.048638 1.433971
Ar 2.077350 1.001750 1.467166
Ar 3.017015 3.823126 2.466454
Ar 3.240686 1.815896 0.513596
Ar 1.628075 2.369876 3.997885
Ar 2.994905 3.926833 0.127858
10
Lattice="10.0 0 0 0 10.0 0 0 0 10.0" Properties=species:S:1:pos:R:3 pbc="T T T" Time=358
Ar 3.757873 2.280741 3.028681
Ar 1.788697 2.776154 2.483763
Ar 3.225410 2.975205 1.203294
Ar 3.797591 2.858459 0.807376
Ar 3.517624 1.051255 1.435770
Ar 2.080758 1.001986 1.470575
Ar 3.024146 3.832007 2.471361
Ar 3.246985 1.818213 0.514461
Ar 1.631884 2.375001 4.006470
Ar 3.003267 3.935529 0.128133
10
Lattice="10.0 0 0 0 10.0 0 0 0 10.0" Properties=species:S:1:pos:R:3 pbc="T T T" Time=359
Ar 3.767387 2.284808 3.037000
Ar 1.792928 2.781221 2.490425
Ar 3.233038 2.981184 1.204607
Ar 3.807073 2.866281 0.809409
Ar 3.525146 1.053871 1.437570
Ar 2.084166 1.002223 1.473985
Ar 3.031277 3.840889 2.476268
Ar 3.253283 1.820529 0.515326
Ar 1.635693 2.380127 4.015055
Ar 3.011629 3.944225 0.128408
10
Lattice="10.0 0 0 0 10.0 0 0 0 10.0" Properties=species:S:1:pos:R:3 pbc="T T T" Time=360
Ar 3.776901 2.288876 3.045319
Ar 1.797160 2.786287 2.497086
Ar 3.240666 2.987163 1.205920
Ar 3.816555 2.874103 0.811442
Ar 3.532668 1.056488 1.439369
Ar 2.087574 1.002459 1.477394
Ar 3.038407 3.849770 2.481175
Ar 3.259582 1.822846 0.516191
Ar 1.639503 2.385252 4.023640
Ar 3.019991 3.952921 0.128682
10
Lattice="10.0 0 0 0 10.0 0 0 0 10.0" Properties=species:S:1:pos:R:3 pbc="T T T" Time=361
Ar 3.786415 2.292943 3.053638
Ar 1.801391 2.791354 2.503748
Ar 3.248294 2.993142 1.207233
Ar 3.826038 2.881925 0.813476
Ar 3.540190 1.059104 1.441169
Ar 2.090982 1.002696 1.480804
Ar 3.045538 3.858651 2.486082
Ar 3.265880 1.825162 0.517056
Ar 1.643312 2.390377 4.032225
Ar 3.028353 3.961617 0.128957
10
Lattice="10.0 0 0 0 10.0 0 0 0 10.0" Properties=species:S:1:pos:R:3 pbc="T T T" Time=362
Ar 3.795929 2.297011 3.061957
Ar 1.805622 2.796421 2.510409
Ar 3.255922 2.999122 1.208546
Ar 3.835520 2.889747 0.815509
Ar 3.547712 1.061721 1.442968
Ar 2.094391 1.002932 1.484214
Ar 3.052668 3.867533 2.490990
Ar 3.272179 1.827479 0.517922
Ar 1.647121 2.395503 4.040810
Ar 3.036715 3.970313 0.129231
10
Lattice="10.0 0 0 0 10.0 0 0 0 10.0" Properties=species:S:1:pos:R:3 pbc="T T T" Time=363
Ar 3.805443 2.301079 3.070276
Ar 1.809853 2.801487 2.517071
Ar 3.263550 3.005101 1.209859
Ar 3.845002 2.897569 0.817543
Ar 3.555234 1.064337 1.444767
Ar 2.097799 1.003169 1.487623
Ar 3.059799 3.876414 2.495897
Ar 3.278477 1.829795 0.518787
Ar 1.650930 2.400628 4.049395
Ar 3.045077 3.979009 0.129506
10
Lattice="10.0 0 0 0 10.0 0 0 0 10.0" Properties=species:S:1:pos:R:3 pbc="T T T" Time=364
Ar 3.814957 2.305146 3.078595
Ar 1.814084 2.806554 2.523732
Ar 3.271178 3.011080 1.211172
Ar 3.854484 2.905391 0.819576
Ar 3.562757 1.066954 1.446567
Ar 2.101207 1.003405 1.491033
Ar 3.066930 3.885296 2.500804
Ar 3.284776 1.832112 0.519652
Ar 1.654739 2.405753 4.057980
Ar 3.053439 3.987705 0.129781
10
Lattice="10.0 0 0 0 10.0 0 0 0 10.0" Properties=species:S:1:pos:R:3 pbc="T T T" Time=365
Ar 3.824471 2.309214 3.086914
Ar 1.818315 2.811621 2.530394
Ar 3.278806 3.017059 1.212485
Ar 3.863966 2.913213 0.821609
Ar 3.570279 1.069571 1.448366
Ar 2.104615 1.003642 1.494442
Ar 3.074060 3.894177 2.505711
Ar 3.291074 1.834428 0.520517
Ar 1.658549 2.410879 4.066565
Ar 3.061800 3.996401 0.130055
10
Lattice="10.0 0 0 0 10.0 0 0 0 10.0" Properties=species:S:1:pos:R:3 pbc="T T T" Time=366
Ar 3.833985 2.313281 3.095233
Ar 1.822546 2.816687 2.537055
Ar 3.286434 3.023038 1.213798
Ar 3.873449 2.921036 0.823643
Ar 3.577801 1.072187 1.450166
Ar 2.108023 1.003878 1.497852
Ar 3.081191 3.903058 2.510618
Ar 3.297373 1.836745 0.521382
Ar 1.662358 2.416004 4.075149
Ar 3.070162 4.005097 0.130330
10
Lattice="10.0 0 0 0 10.0 0 0 0 10.0" Properties=species:S:1:pos:R:3 pbc="T T T" Time=367
Ar 3.843499 2.317349 3.103552
Ar 1.826777 2.821754 2.543717
Ar 3.294062 3.029017 1.215111
Ar 3.882931 2.928858 0.825676
Ar 3.585323 1.074804 1.451965
Ar 2.111431 1.004115 1.501262
Ar 3.088322 3.911940 2.515525
Ar 3.303671 1.839061 0.522248
Ar 1.666167 2.421129 4.083734
Ar 3.078524 4.013793 0.130604
10
Lattice="10.0 0 0 0 10.0 0 0 0 10.0" Properties=species:S:1:pos:R:3 pbc="T T T" Time=368
Ar 3.853013 2.321417 3.111871
Ar 1.831009 2.826820 2.550379
Ar 3.301690 3.034996 1.216424
Ar 3.892413 2.936680 0.827709
Ar 3.592845 1.077420 1.453765
Ar 2.114839 1.004351 1.504671
Ar 3.095452 3.920821 2.520432
Ar 3.309970 1.841378 0.523113
Ar 1.669976 2.426255 4.092319
Ar 3.086886 4.022489 0.130879
10
Lattice="10.0 0 0 0 10.0 0 0 0 10.0" Properties=species:S:1:pos:R:3 pbc="T T T" Time=369
Ar 3.862527 2.325484 3.120190
Ar 1.835240 2.831887 2.557040
Ar 3.309318 3.040975 1.217737
Ar 3.901895 2.944502 0.829743
Ar 3.600367 1.080037 1.455564
Ar 2.118247 1.004588 1.508081
Ar 3.102583 3.929703 2.525339
Ar 3.316268 1.843694 0.523978
Ar 1.673785 2.431380 4.100904
Ar 3.095248 4.031185 0.131154
10
Lattice="10.0 0 0 0 10.0 0 0 0 10.0" Properties=species:S:1:pos:R:3 pbc="T T T" Time=370
Ar 3.872041 2.329552 3.128509
Ar 1.839471 2.836954 2.563702
Ar 3.316946 3.046954 1.219050
Ar 3.911378 2.952324 0.831776
Ar 3.607889 1.082653 1.457363
Ar 2.121655 1.004824 1.511490
Ar 3.109713 3.938584 2.530246
Ar 3.322567 1.846011 0.524843
Ar 1.677594 2.436505 4.109489
Ar 3.103610 4.039881 0.131428
10
Lattice="10.0 0 0 0 10.0 0 0 0 10.0" Properties=species:S:1:pos:R:3 pbc="T T T" Time=371
Ar 3.881555 2.333619 3.136828
Ar 1.843702 2.842020 2.570363
Ar 3.324574 3.052933 1.220363
Ar 3.920860 2.960146 0.833809
Ar 3.615411 1.085270 1.459163
Ar 2.125063 1.005061 1.514900
Ar 3.116844 3.947465 2.535153
Ar 3.328865 1.848327 0.525708
Ar 1.681404 2.441631 4.118074
Ar 3.111972 4.048577 0.131703
10
Lattice="10.0 0 0 0 10.0 0 0 0 10.0" Properties=species:S:1:pos:R:3 pbc="T T T" Time=372
Ar 3.891069 2.337687 3.145147
Ar 1.847933 2.847087 2.577025
Ar 3.332202 3.058912 1.221676
Ar 3.930342 2.967968 0.835843
Ar 3.622933 1.087887 1.460962
Ar 2.128471 1.005297 1.518310
Ar 3.123975 3.956347 2.540060
Ar 3.335164 1.850644 0.526574
Ar 1.685213 2.446756 4.126659
Ar 3.120334 4.057273 0.131978
10
Lattice="10.0 0 0 0 10.0 0 0 0 10.0" Properties=species:S:1:pos:R:3 pbc="T T T" Time=373
Ar 3.900583 2.341754 3.153466
Ar 1.852164 2.852154 2.583686
Ar 3.339830 3.064891 1.222989
Ar 3.939824 2.975790 0.837876
Ar 3.630455 1.090503 1.462762
Ar 2.131879 1.005533 1.521719
Ar 3.131105 3.965228 2.544967
Ar 3.341462 1.852960 0.527439
Ar 1.689022 2.451881 4.135244
Ar 3.128696 4.065969 0.132252
10
Lattice="10.0 0 0 0 10.0 0 0 0 10.0" Properties=species:S:1:pos:R:3 pbc="T T T" Time=374
Ar 3.910097 2.345822 3.161785
Ar 1.856395 2.857220 2.590348
Ar 3.347458 3.070870 1.224302
Ar 3.949306 2.983612 0.839909
Ar 3.637977 1.093120 1.464561
Ar 2.135288 1.005770 1.525129
Ar 3.138236 3.974110 2.549874
Ar 3.347761 1.855277 0.528304
Ar 1.692831 2.457007 4.143829
Ar 3.137058 4.074665 0.132527
10
Lattice="10.0 0 0 0 10.0 0 0 0 10.0" Properties=species:S:1:pos:R:3 pbc="T T T" Time=375
Ar 3.919611 2.349890 3.170104
Ar 1.860627 2.862287 2.597009
Ar 3.355086 3.076850 1.225615
Ar 3.958789 2.991434 0.841943
Ar 3.645499 1.095736 1.466361
Ar 2.138696 1.006006 1.528538
Ar 3.145367 3.982991 2.554781
Ar 3.354059 1.857593 0.529169
Ar 1.696640 2.462132 4.152414
Ar 3.145420 4.083361 0.132801
10
Lattice="10.0 0 0 0 10.0 0 0 0 10.0" Properties=species:S:1:pos:R:3 pbc="T T T" Time=376
Ar 3.929126 2.353957 3.178423
Ar 1.864858 2.867354 2.603671
Ar 3.362714 3.082829 1.226928
Ar 3.968271 2.999256 0.843976
Ar 3.653022 1.098353 1.468160
Ar 2.142104 1.006243 1.531948
Ar 3.152497 3.991872 2.559688
Ar 3.360358 1.859910 0.530034
Ar 1.700450 2.467257 4.160998
Ar 3.153782 4.092057 0.133076
10
Lattice="10.0 0 0 0 10.0 0 0 0 10.0" Properties=species:S:1:pos:R:3 pbc="T T T" Time=377
Ar 3.938640 2.358025 3.186742
Ar 1.869089 2.872420 2.610332
Ar 3.370342 3.088808 1.228241
Ar 3.977753 3.007078 0.846009
Ar 3.660544 1.100969 1.469959
Ar 2.145512 1.006479 1.535358
Ar 3.159628 4.000754 2.564595
Ar 3.366656 1.862226 0.530900
Ar 1.704259 2.472383 4.169583
Ar 3.162144 4.100753 0.133351
10
Lattice="10.0 0 0 0 10.0 0 0 0 10.0" Properties=species:S:1:pos:R:3 pbc="T T T" Time=378
Ar 3.948154 2.362092 3.195061
Ar 1.873320 2.877487 2.616994
Ar 3.377970 3.094787 1.229554
Ar 3.987235 3.014900 0.848043
Ar 3.668066 1.103586 1.471759
Ar 2.148920 1.006716 1.538767
Ar 3.166759 4.009635 2.569502
Ar 3.372955 1.864543 0.531765
Ar 1.708068 2.477508 4.178168
Ar 3.170506 4.109448 0.133625
10
Lattice="10.0 0 0 0 10.0 0 0 0 10.0" Properties=species:S:1:pos:R:3 pbc="T T T" Time=379
Ar 3.957668 2.366160 3.203380
Ar 1.877551 2.882554 2.623655
Ar 3.385598 3.100766 1.230867
Ar 3.996717 3.022723 0.850076
Ar 3.675588 1.106203 1.473558
Ar 2.152328 1.006952 1.542177
Ar 3.173889 4.018517 2.574409
Ar 3.379253 1.866859 0.532630
Ar 1.711877 2.482633 4.186753
Ar 3.178868 4.118144 0.133900
10
Lattice="10.0 0 0 0 10.0 0 0 0 10.0" Properties=species:S:1:pos:R:3 pbc="T T T" Time=380
Ar 3.967182 2.370228 3.211699
Ar 1.881782 2.887620 2.630317
Ar 3.393226 3.106745 1.232180
Ar 4.006200 3.030545 0.852110
Ar 3.683110 1.108819 1.475358
Ar 2.155736 1.007189 1.545586
Ar 3.181020 4.027398 2.579316
Ar 3.385552 1.869176 0.533495
Ar 1.715686 2.487759 4.195338
Ar 3.187230 4.126840 0.134175
10
Lattice="10.0 0 0 0 10.0 0 0 0 10.0" Properties=species:S:1:pos:R:3 pbc="T T T" Time=381
Ar 3.976696 2.374295 3.220018
Ar 1.886013 2.892687 2.636979
Ar 3.400854 3.112724 1.233493
Ar 4.015682 3.038367 0.854143
Ar 3.690632 1.111436 1.477157
Ar 2.159144 1.007425 1.548996
Ar 3.188150 4.036279 2.584223
Ar 3.391850 1.871492 0.534361
Ar 1.719495 2.492884 4.203923
Ar 3.195592 4.135536 0.134449
10
Lattice="10.0 0 0 0 10.0 0 0 0 10.0" Properties=species:S:1:pos:R:3 pbc="T T T" Time=382
Ar 3.986210 2.378363 3.228337
Ar 1.890245 2.897753 2.643640
Ar 3.408482 3.118703 1.234806
Ar 4.025164 3.046189 0.856176
Ar 3.698154 1.114052 1.478956
Ar 2.162552 1.007662 1.552406
Ar 3.195281 4.045161 2.589130
Ar 3.398149 1.873809 0.535226
Ar 1.723305 2.498009 4.212508
Ar 3.203954 4.144232 0.134724
10
Lattice="10.0 0 0 0 10.0 0 0 0 10.0" Properties=species:S:1:pos:R:3 pbc="T T T" Time=383
Ar 3.995724 2.382430 3.236656
Ar 1.894476 2.902820 2.650302
Ar 3.416110 3.124682 1.236119
Ar 4.034646 3.054011 0.858210
Ar 3.705676 1.116669 1.480756
Ar 2.165960 1.007898 1.555815
Ar 3.202412 4.054042 2.594038
Ar 3.404447 1.876125 0.536091
Ar 1.727114 2.503135 4.221093
Ar 3.212316 4.152928 0.134998
10
Lattice="10.0 0 0 0 10.0 0 0 0 10.0" Properties=species:S:1:pos:R:3 pbc="T T T" Time=384
Ar 4.005238 2.386498 3.244975
Ar 1.898707 2.907887 2.656963
Ar 3.423738 3.130661 1.237432
Ar 4.044128 3.061833 0.860243
Ar 3.713198 1.119285 1.482555
Ar 2.169368 1.008135 1.559225
Ar 3.209542 4.062923 2.598945
Ar 3.410746 1.878442 0.536956
Ar 1.730923 2.508260 4.229678
Ar 3.220678 4.161624 0.135273
10
Lattice="10.0 0 0 0 10.0 0 0 0 10.0" Properties=species:S:1:pos:R:3 pbc="T T T" Time=385
Ar 4.014752 2.390566 3.253294
Ar 1.902938 2.912953 2.663625
Ar 3.431366 3.136640 1.238745
Ar 4.053611 3.069655 0.862276
Ar 3.720720 1.121902 1.484355
Ar 2.172776 1.008371 1.562634
Ar 3.216673 4.071805 2.603852
Ar 3.417044 1.880758 0.537821
Ar 1.734732 2.513385 4.238262
Ar 3.229040 4.170320 0.135548
10
Lattice="10.0 0 0 0 10.0 0 0 0 10.0" Properties=species:S:1:pos:R:3 pbc="T T T" Time=386
Ar 4.024266 2.394633 3.261613
Ar 1.907169 2.918020 2.670286
Ar 3.438994 3.142619 1.240058
Ar 4.063093 3.077477 0.864310
Ar 3.728242 1.124519 1.486154
Ar 2.176185 1.008608 1.566044
Ar 3.223804 4.080686 2.608759
Ar 3.423343 1.883075 0.538687
Ar 1.738541 2.518510 4.246847
Ar 3.237402 4.179016 0.135822
10
Lattice="10.0 0 0 0 10.0 0 0 0 10.0" Properties=species:S:1:pos:R:3 pbc="T T T" Time=387
Ar 4.033780 2.398701 3.269932
Ar 1.911400 2.923087 2.676948
Ar 3.446622 3.148598 1.241371
Ar 4.072575 3.085299 0.866343
Ar 3.735764 1.127135 1.487954
Ar 2.179593 1.008844 1.569454
Ar 3.230934 4.089568 2.613666
Ar 3.429641 1.885391 0.539552
Ar 1.742350 2.523636 4.255432
Ar 3.245764 4.187712 0.136097
10
Lattice="10.0 0 0 0 10.0 0 0 0 10.0" Properties=species:S:1:pos:R:3 pbc="T T T" Time=388
Ar 4.043294 2.402768 3.278251
Ar 1.915631 2.928153 2.683609
Ar 3.454250 3.154578 1.242684
Ar 4.082057 3.093121 0.868376
Ar 3.743287 1.129752 1.489753
Ar 2.183001 1.009081 1.572863
Ar 3.238065 4.098449 2.618573
Ar 3.435940 1.887707 0.540417
Ar 1.746160 2.528761 4.264017
Ar 3.254126 4.196408 0.136371
10
Lattice="10.0 0 0 0 10.0 0 0 0 10.0" Properties=species:S:1:pos:R:3 pbc="T T T" Time=389
Ar 4.052808 2.406836 3.286570
Ar 1.919862 2.933220 2.690271
Ar 3.461878 3.160557 1.243997
Ar 4.091539 3.100943 0.870410
Ar 3.750809 1.132368 1.491552
Ar 2.186409 1.009317 1.576273
Ar 3.245195 4.107330 2.623480
Ar 3.442238 1.890024 0.541282
Ar 1.749969 2.533886 4.272602
Ar 3.262488 4.205104 0.136646
10
Lattice="10.0 0 0 0 10.0 0 0 0 10.0" Properties=species:S:1:pos:R:3 pbc="T T T" Time=390
Ar 4.062322 2.410904 3.294889
Ar 1.924094 2.938287 2.696932
Ar 3.469506 3.166536 1.245310
Ar 4.101022 3.108765 0.872443
Ar 3.758331 1.134985 1.493352
Ar 2.189817 1.009554 1.579682
Ar 3.252326 4.116212 2.628387
Ar 3.448537 1.892340 0.542147
Ar 1.753778 2.539012 4.281187
Ar 3.270850 4.213800 0.136921
10
Lattice="10.0 0 0 0 10.0 0 0 0 10.0" Properties=species:S:1:pos:R:3 pbc="T T T" Time=391
Ar 4.071836 2.414971 3.303208
Ar 1.928325 2.943353 2.703594
Ar 3.477134 3.172515 1.246623
Ar 4.110504 3.116587 0.874476
Ar 3.765853 1.137601 1.495151
Ar 2.193225 1.009790 1.583092
Ar 3.259457 4.125093 2.633294
Ar 3.454835 1.894657 0.543013
Ar 1.757587 2.544137 4.289772
Ar 3.279211 4.222496 0.137195
10
Lattice="10.0 0 0 0 10.0 0 0 0 10.0" Properties=species:S:1:pos:R:3 pbc="T T T" Time=392
Ar 4.081350 2.419039 3.311527
Ar 1.932556 2.948420 2.710256
Ar 3.484762 3.178494 1.247936
Ar 4.119986 3.124410 0.876510
Ar 3.773375 1.140218 1.496951
Ar 2.196633 1.010026 1.586501
Ar 3.266587 4.133975 2.638201
Ar 3.461134 1.896973 0.543878
Ar 1.761396 2.549262 4.298357
Ar 3.287573 4.231192 0.137470
10
Lattice="10.0 0 0 0 10.0 0 0 0 10.0" Properties=species:S:1:pos:R:3 pbc="T T T" Time=393
Ar 4.090864 2.423106 3.319846
Ar 1.936787 2.953487 2.716917
Ar 3.492390 3.184473 1.249249
Ar 4.129468 3.132232 0.878543
Ar 3.780897 1.142835 1.498750
Ar 2.200041 1.010263 1.589911
Ar 3.273718 4.142856 2.643108
Ar 3.467432 1.899290 0.544743
Ar 1.765206 2.554388 4.306942
Ar 3.295935 4.239888 0.137745
10
Lattice="10.0 0 0 0 10.0 0 0 0 10.0" Properties=species:S:1:pos:R:3 pbc="T T T" Time=394
Ar 4.100378 2.427174 3.328165
Ar 1.941018 2.958553 2.723579
Ar 3.500018 3.190452 1.250562
Ar 4.138950 3.140054 0.880576
Ar 3.788419 1.145451 1.500550
Ar 2.203449 1.010499 1.593321
Ar 3.280849 4.151737 2.648015
Ar 3.473731 1.901606 0.545608
Ar 1.769015 2.559513 4.315527
Ar 3.304297 4.248584 0.138019
10
Lattice="10.0 0 0 0 10.0 0 0 0 10.0" Properties=species:S:1:pos:R:3 pbc="T T T" Time=395
Ar 4.109892 2.431242 3.336484
Ar 1.945249 2.963620 2.730240
Ar 3.507646 3.196431 1.251875
Ar 4.148433 3.147876 0.882610
Ar 3.795941 1.148068 1.502349
Ar 2.206857 1.010736 1.596730
Ar 3.287979 4.160619 2.652922
Ar 3.480029 1.903923 0.546473
Ar 1.772824 2.564638 4.324111
Ar 3.312659 4.257280 0.138294
10
Lattice="10.0 0 0 0 10.0 0 0 0 10.0" Properties=species:S:1:pos:R:3 pbc="T T T" Time=396
Ar 4.119406 2.435309 3.344803
Ar 1.949480 2.968686 2.736902
Ar 3.515274 3.202410 1.253188
Ar 4.157915 3.155698 0.884643
Ar 3.803463 1.150684 1.504148
Ar 2.210265 1.010972 1.600140
Ar 3.295110 4.169500 2.657829
Ar 3.486328 1.906239 0.547339
Ar 1.776633 2.569764 4.332696
Ar 3.321021 4.265976 0.138568
10
Lattice="10.0 0 0 0 10.0 0 0 0 10.0" Properties=species:S:1:pos:R:3 pbc="T T T" Time=397
Ar 4.128920 2.439377 3.353122
Ar 1.953712 2.973753 2.743563
Ar 3.522902 3.208389 1.254501
Ar 4.167397 3.163520 0.886677
Ar 3.810985 1.153301 1.505948
Ar 2.213673 1.011209 1.603549
Ar 3.302240 4.178382 2.662736
Ar 3.492626 1.908556 0.548204
Ar 1.780442 2.574889 4.341281
Ar 3.329383 4.274672 0.138843
10
Lattice="10.0 0 0 0 10.0 0 0 0 10.0" Properties=species:S:1:pos:R:3 pbc="T T T" Time=398
Ar 4.138434 2.443444 3.361441
Ar 1.957943 2.978820 2.750225
Ar 3.530530 3.214368 1.255814
Ar 4.176879 3.171342 0.888710
Ar 3.818507 1.155917 1.507747
Ar 2.217082 1.011445 1.606959
Ar 3.309371 4.187263 2.667643
Ar 3.498925 1.910872 0.549069
Ar 1.784251 2.580014 4.349866
Ar 3.337745 4.283368 0.139118
10
Lattice="10.0 0 0 0 10.0 0 0 0 10.0" Properties=species:S:1:pos:R:3 pbc="T T T" Time=399
Ar 4.147949 2.447512 3.369760
Ar 1.962174 2.983886 2.756886
Ar 3.538158 3.220347 1.257127
Ar 4.186361 3.179164 0.890743
Ar 3.826030 1.158534 1.509547
Ar 2.220490 1.011682 1.610369
Ar 3.316502 4.196144 2.672550
Ar 3.505223 1.913189 0.549934
Ar 1.788061 2.585140 4.358451
Ar 3.346107 4.292064 0.139392
10
Lattice="10.0 0 0 0 10.0 0 0 0 10.0" Properties=species:S:1:pos:R:3 pbc="T T T" Time=400
Ar 4.157463 2.451579 3.378079
Ar 1.966405 2.988953 2.763548
Ar 3.545786 3.226326 1.258440
Ar 4.195844 3.186986 0.892777
Ar 3.833552 1.161151 1.511346
Ar 2.223898 1.011918 1.613778
Ar 3.323632 4.205026 2.677457
Ar 3.511522 1.915505 0.550799
Ar 1.791870 2.590265 4.367036
Ar 3.354469 4.300759 0.139667
10
Lattice="10.0 0 0 0 10.0 0 0 0 10.0" Properties=species:S:1:pos:R:3 pbc="T T T" Time=401
Ar 4.166977 2.455647 3.386398
Ar 1.970636 2.994020 2.770209
Ar 3.553414 3.232306 1.259753
Ar 4.205326 3.194808 0.894810
Ar 3.841074 1.163767 1.513146
Ar 2.227306 1.012155 1.617188
Ar 3.330763 4.213907 2.682364
Ar 3.517820 1.917822 0.551665
Ar 1.795679 2.595390 4.375621
Ar 3.362831 4.309455 0.139941
10
Lattice="10.0 0 0 0 10.0 0 0 0 10.0" Properties=species:S:1:pos:R:3 pbc="T T T" Time=402
Ar 4.176491 2.459715 3.394717
Ar 1.974867 2.999086 2.776871
Ar 3.561042 3.238285 1.261066
Ar 4.214808 3.202630 0.896843
Ar 3.848596 1.166384 1.514945
Ar 2.230714 1.012391 1.620597
Ar 3.337894 4.222789 2.687271
Ar 3.524119 1.920138 0.552530
Ar 1.799488 2.600516 4.384206
Ar 3.371193 4.318151 0.140216
10
Lattice="10.0 0 0 0 10.0 0 0 0 10.0" Properties=species:S:1:pos:R:3 pbc="T T T" Time=403
Ar 4.186005 2.463782 3.403036
Ar 1.979098 3.004153 2.783532
Ar 3.568670 3.244264 1.262379
Ar 4.224290 3.210452 0.898877
Ar 3.856118 1.169000 1.516744
Ar 2.234122 1.012628 1.624007
Ar 3.345024 4.231670 2.692178
Ar 3.530417 1.922455 0.553395
Ar 1.803297 2.605641 4.392791
Ar 3.379555 4.326847 0.140491
10
Lattice="10.0 0 0 0 10.0 0 0 0 10.0" Properties=species:S:1:pos:R:3 pbc="T T T" Time=404
Ar 4.195519 2.467850 3.411355
Ar 1.983329 3.009220 2.790194
Ar 3.576298 3.250243 1.263692
Ar 4.233772 3.218274 0.900910
Ar 3.863640 1.171617 1.518544
Ar 2.237530 1.012864 1.627417
Ar 3.352155 4.240551 2.697086
Ar 3.536716 1.924771 0.554260
Ar 1.807106 2.610766 4.401376
Ar 3.387917 4.335543 0.140765
10
Lattice="10.0 0 0 0 10.0 0 0 0 10.0" Properties=species:S:1:pos:R:3 pbc="T T T" Time=405
Ar 4.205033 2.471917 3.419674
Ar 1.987561 3.014286 2.796856
Ar 3.583926 3.256222 1.265005
Ar 4.243255 3.226097 0.902943
Ar 3.871162 1.174233 1.520343
Ar 2.240938 1.013101 1.630826
Ar 3.359285 4.249433 2.701993
Ar 3.543014 1.927088 0.555125
Ar 1.810916 2.615892 4.409960
Ar 3.396279 4.344239 0.141040
10
Lattice="10.0 0 0 0 10.0 0 0 0 10.0" Properties=species:S:1:pos:R:3 pbc="T T T" Time=406
Ar 4.214547 2.475985 3.427993
Ar 1.991792 3.019353 2.803517
Ar 3.591553 3.262201 1.266318
Ar 4.252737 3.233919 0.904977
Ar 3.878684 1.176850 1.522143
Ar 2.244346 1.013337 1.634236
Ar 3.366416 4.258314 2.706900
Ar 3.549313 1.929404 0.555991
Ar 1.814725 2.621017 4.418545
Ar 3.404641 4.352935 0.141315
10
Lattice="10.0 0 0 0 10.0 0 0 0 10.0" Properties=species:S:1:pos:R:3 pbc="T T T" Time=407
Ar 4.224061 2.480053 3.436312
Ar 1.996023 3.024419 2.810179
Ar 3.599181 3.268180 1.267631
Ar 4.262219 3.241741 0.907010
Ar 3.886206 1.179467 1.523942
Ar 2.247754 1.013574 1.637645
Ar 3.373547 4.267196 2.711807
Ar 3.555611 1.931721 0.556856
Ar 1.818534 2.626142 4.427130
Ar 3.413003 4.361631 0.141589
10
Lattice="10.0 0 0 0 10.0 0 0 0 10.0" Properties=species:S:1:pos:R:3 pbc="T T T" Time=408
Ar 4.233575 2.484120 3.444631
Ar 2.000254 3.029486 2.816840
Ar 3.606809 3.274159 1.268944
Ar 4.271701 3.249563 0.909043
Ar 3.893728 1.182083 1.525742
Ar 2.251162 1.013810 1.641055
Ar 3.380677 4.276077 2.716714
Ar 3.561910 1.934037 0.557721
Ar 1.822343 2.631268 4.435715
Ar 3.421365 4.370327 0.141864
10
Lattice="10.0 0 0 0 10.0 0 0 0 10.0" Properties=species:S:1:pos:R:3 pbc="T T T" Time=409
Ar 4.243089 2.488188 3.452950
Ar 2.004485 3.034553 2.823502
Ar 3.614437 3.280138 1.270257
Ar 4.281183 3.257385 0.911077
Ar 3.901250 1.184700 1.527541
Ar 2.254570 1.014047 1.644465
Ar 3.387808 4.284958 2.721621
Ar 3.568208 1.936354 0.558586
Ar 1.826152 2.636393 4.444300
Ar 3.429727 4.379023 0.142138
10
Lattice="10.0 0 0 0 10.0 0 0 0 10.0" Properties=species:S:1:pos:R:3 pbc="T T T" Time=410
Ar 4.252603 2.492255 3.461269
Ar 2.008716 3.039619 2.830163
Ar 3.622065 3.286117 1.271570
Ar 4.290666 3.265207 0.913110
Ar 3.908772 1.187316 1.529340
Ar 2.257979 1.014283 1.647874
Ar 3.394939 4.293840 2.726528
Ar 3.574507 1.938670 0.559451
Ar 1.829962 2.641518 4.452885
Ar 3.438089 4.387719 0.142413
10
Lattice="10.0 0 0 0 10.0 0 0 0 10.0" Properties=species:S:1:pos:R:3 pbc="T T T" Time=411
Ar 4.262117 2.496323 3.469588
Ar 2.012947 3.044686 2.836825
Ar 3.629693 3.292096 1.272883
Ar 4.300148 3.273029 0.915143
Ar 3.916295 1.189933 1.531140
Ar 2.261387 1.014519 1.651284
Ar 3.402069 4.302721 2.731435
Ar 3.580805 1.940987 0.560317
Ar 1.833771 2.646643 4.461470
Ar 3.446451 4.396415 0.142688
10
Lattice="10.0 0 0 0 10.0 0 0 0 10.0" Properties=species:S:1:pos:R:3 pbc="T T T" Time=412
Ar 4.271631 2.500391 3.477907
Ar 2.017179 3.049753 2.843486
Ar 3.637321 3.298075 1.274196
Ar 4.309630 3.280851 0.917177
Ar 3.923817 1.192549 1.532939
Ar 2.264795 1.014756 1.654693
Ar 3.409200 4.311602 2.736342
Ar 3.587104 1.943303 0.561182
Ar 1.837580 2.651769 4.470055
Ar 3.454813 4.405111 0.142962
10
Lattice="10.0 0 0 0 10.0 0 0 0 10.0" Properties=species:S:1:pos:R:3 pbc="T T T" Time=413
Ar 4.281145 2.504458 3.486226
Ar 2.021410 3.054819 2.850148
Ar 3.644949 3.304054 1.275509
Ar 4.319112 3.288673 0.919210
Ar 3.931339 1.195166 1.534739
Ar 2.268203 1.014992 1.658103
Ar 3.416331 4.320484 2.741249
Ar 3.593402 1.945620 0.562047
Ar 1.841389 2.656894 4.478640
Ar 3.463175 4.413807 0.143237
10
Lattice="10.0 0 0 0 10.0 0 0 0 10.0" Properties=species:S:1:pos:R:3 pbc="T T T" Time=414
Ar 4.290659 2.508526 3.494545
Ar 2.025641 3.059886 2.856809
Ar 3.652577 3.310034 1.276822
Ar 4.328594 3.296495 0.921243
Ar 3.938861 1.197783 1.536538
Ar 2.271611 1.015229 1.661513
Ar 3.423461 4.329365 2.746156
Ar 3.599701 1.947936 0.562912
Ar 1.845198 2.662019 4.487224
Ar 3.471537 4.422503 0.143512
10
Lattice="10.0 0 0 0 10.0 0 0 0 10.0" Properties=species:S:1:pos:R:3 pbc="T T T" Time=415
Ar 4.300173 2.512593 3.502864
Ar 2.029872 3.064953 2.863471
Ar 3.660205 3.316013 1.278135
Ar 4.338077 3.304317 0.923277
Ar 3.946383 1.200399 1.538337
Ar 2.275019 1.015465 1.664922
Ar 3.430592 4.338247 2.751063
Ar 3.605999 1.950253 0.563777
Ar 1.849007 2.667145 4.495809
Ar 3.479899 4.431199 0.143786
10
Lattice="10.0 0 0 0 10.0 0 0 0 10.0" Properties=species:S:1:pos:R:3 pbc="T T T" Time=416
Ar 4.309687 2.516661 3.511183
Ar 2.034103 3.070019 2.870133
Ar 3.667833 3.321992 1.279448
Ar 4.347559 3.312139 0.925310
Ar 3.953905 1.203016 1.540137
Ar 2.278427 1.015702 1.668332
Ar 3.437722 4.347128 2.755970
Ar 3.612298 1.952569 0.564643
Ar 1.852817 2.672270 4.504394
Ar 3.488261 4.439895 0.144061
10
Lattice="10.0 0 0 0 10.0 0 0 0 10.0" Properties=species:S:1:pos:R:3 pbc="T T T" Time=417
Ar 4.319201 2.520729 3.519502
Ar 2.038334 3.075086 2.876794
Ar 3.675461 3.327971 1.280761
Ar 4.357041 3.319961 0.927344
Ar 3.961427 1.205632 1.541936
Ar 2.281835 1.015938 1.671741
Ar 3.444853 4.356009 2.760877
Ar 3.618596 1.954886 0.565508
Ar 1.856626 2.677395 4.512979
Ar 3.496623 4.448591 0.144335
10
Lattice="10.0 0 0 0 10.0 0 0 0 10.0" Properties=species:S:1:pos:R:3 pbc="T T T" Time=418
Ar 4.328715 2.524796 3.527821
Ar 2.042565 3.080153 2.883456
Ar 3.683089 3.333950 1.282074
Ar 4.366523 3.327784 0.929377
Ar 3.968949 1.208249 1.543736
Ar 2.285243 1.016175 1.675151
Ar 3.451984 4.364891 2.765784
Ar 3.624895 1.957202 0.566373
Ar 1.860435 2.682521 4.521564
Ar 3.504984 4.457287 0.144610
10
Lattice="10.0 0 0 0 10.0 0 0 0 10.0" Properties=species:S:1:pos:R:3 pbc="T T T" Time=419
Ar 4.338229 2.528864 3.536140
Ar 2.046797 3.085219 2.890117
Ar 3.690717 3.339929 1.283387
Ar 4.376006 3.335606 0.931410
Ar 3.976471 1.210865 1.545535
Ar 2.288651 1.016411 1.678561
Ar 3.459114 4.373772 2.770691
Ar 3.631193 1.959519 0.567238
Ar 1.864244 2.687646 4.530149
Ar 3.513346 4.465983 0.144885
10
Lattice="10.0 0 0 0 10.0 0 0 0 10.0" Properties=species:S:1:pos:R:3 pbc="T T T" Time=420
Ar 4.347743 2.532931 3.544459
Ar 2.051028 3.090286 2.896779
Ar 3.698345 3.345908 1.284700
Ar 4.385488 3.343428 0.933444
Ar 3.983993 1.213482 1.547335
Ar 2.292059 1.016648 1.681970
Ar 3.466245 4.382654 2.775598
Ar 3.637492 1.961835 0.568103
Ar 1.868053 2.692771 4.538734
Ar 3.521708 4.474679 0.145159
10
Lattice="10.0 0 0 0 10.0 0 0 0 10.0" Properties=species:S:1:pos:R:3 pbc="T T T" Time=421
Ar 4.357258 2.536999 3.552778
Ar 2.055259 3.095352 2.903440
Ar 3.705973 3.351887 1.286013
Ar 4.394970 3.351250 0.935477
Ar 3.991515 1.216099 1.549134
Ar 2.295467 1.016884 1.685380
Ar 3.473376 4.391535 2.780505
Ar 3.643790 1.964152 0.568969
Ar 1.871862 2.697897 4.547319
Ar 3.530070 4.483374 0.145434
10
Lattice="10.0 0 0 0 10.0 0 0 0 10.0" Properties=species:S:1:pos:R:3 pbc="T T T" Time=422
Ar 4.366772 2.541067 3.561097
Ar 2.059490 3.100419 2.910102
Ar 3.713601 3.357866 1.287326
Ar 4.404452 3.359072 0.937510
Ar 3.999037 1.218715 1.550933
Ar 2.298876 1.017121 1.688789
Ar 3.480506 4.400416 2.785412
Ar 3.650089 1.966468 0.569834
Ar 1.875672 2.703022 4.555904
Ar 3.538432 4.492070 0.145708
10
Lattice="10.0 0 0 0 10.0 0 0 0 10.0" Properties=species:S:1:pos:R:3 pbc="T T T" Time=423
Ar 4.376286 2.545134 3.569416
Ar 2.063721 3.105486 2.916763
Ar 3.721229 3.363845 1.288639
Ar 4.413934 3.366894 0.939544
Ar 4.006560 1.221332 1.552733
Ar 2.302284 1.017357 1.692199
Ar 3.487637 4.409298 2.790319
Ar 3.656387 1.968785 0.570699
Ar 1.879481 2.708147 4.564489
Ar 3.546794 4.500766 0.145983
10
Lattice="10.0 0 0 0 10.0 0 0 0 10.0" Properties=species:S:1:pos:R:3 pbc="T T T" Time=424
Ar 4.385800 2.549202 3.577735
Ar 2.067952 3.110552 2.923425
Ar 3.728857 3.369824 1.289952
Ar 4.423417 3.374716 0.941577
Ar 4.014082 1.223948 1.554532
Ar 2.305692 1.017594 1.695609
Ar 3.494767 4.418179 2.795226
Ar 3.662685 1.971101 0.571564
Ar 1.883290 2.713273 4.573073
Ar 3.555156 4.509462 0.146258
10
Lattice="10.0 0 0 0 10.0 0 0 0 10.0" Properties=species:S:1:pos:R:3 pbc="T T T" Time=425
Ar 4.395314 2.553269 3.586054
Ar 2.072183 3.115619 2.930086
Ar 3.736485 3.375803 1.291265
Ar 4.432899 3.382538 0.943610
Ar 4.021604 1.226565 1.556332
Ar 2.309100 1.017830 1.699018
Ar 3.501898 4.427061 2.800134
Ar 3.668984 1.973418 0.572429
Ar 1.887099 2.718398 4.581658
Ar 3.563518 4.518158 0.146532
10
Lattice="10.0 0 0 0 10.0 0 0 0 10.0" Properties=species:S:1:pos:R:3 pbc="T T T" Time=426
Ar 4.404828 2.557337 3.594373
Ar 2.076414 3.120686 2.936748
Ar 3.744113 3.381782 1.292578
Ar 4.442381 3.390360 0.945644
Ar 4.029126 1.229181 1.558131
Ar 2.312508 1.018067 1.702428
Ar 3.509029 4.435942 2.805041
Ar 3.675282 1.975734 0.573295
Ar 1.890908 2.723523 4.590243
Ar 3.571880 4.526854 0.146807
10
Lattice="10.0 0 0 0 10.0 0 0 0 10.0" Properties=species:S:1:pos:R:3 pbc="T T T" Time=427
Ar 4.414342 2.561404 3.602692
Ar 2.080646 3.125752 2.943409
Ar 3.751741 3.387762 1.293891
Ar 4.451863 3.398182 0.947677
Ar 4.036648 1.231798 1.559931
Ar 2.315916 1.018303 1.705837
Ar 3.516159 4.444823 2.809948
Ar 3.681581 1.978051 0.574160
Ar 1.894718 2.728649 4.598828
Ar 3.580242 4.535550 0.147082
10
Lattice="10.0 0 0 0 10.0 0 0 0 10.0" Properties=species:S:1:pos:R:3 pbc="T T T" Time=428
Ar 4.423856 2.565472 3.611011
Ar 2.084877 3.130819 2.950071
Ar 3.759369 3.393741 1.295204
Ar 4.461345 3.406004 0.949710
Ar 4.044170 1.234415 1.561730
Ar 2.319324 1.018540 1.709247
Ar 3.523290 4.453705 2.814855
Ar 3.687879 1.980367 0.575025
Ar 1.898527 2.733774 4.607413
Ar 3.588604 4.544246 0.147356
10
Lattice="10.0 0 0 0 10.0 0 0 0 10.0" Properties=species:S:1:pos:R:3 pbc="T T T" Time=429
Ar 4.433370 2.569540 3.619330
Ar 2.089108 3.135886 2.956733
Ar 3.766997 3.399720 1.296517
Ar 4.470828 3.413826 0.951744
Ar 4.051692 1.237031 1.563529
Ar 2.322732 1.018776 1.712657
Ar 3.530421 4.462586 2.819762
Ar 3.694178 1.982684 0.575890
Ar 1.902336 2.738899 4.615998
Ar 3.596966 4.552942 0.147631
10
Lattice="10.0 0 0 0 10.0 0 0 0 10.0" Properties=species:S:1:pos:R:3 pbc="T T T" Time=430
Ar 4.442884 2.573607 3.627649
Ar 2.093339 3.140952 2.963394
Ar 3.774625 3.405699 1.297830
Ar 4.480310 3.421648 0.953777
Ar 4.059214 1.239648 1.565329
Ar 2.326140 1.019012 1.716066
Ar 3.537551 4.471468 2.824669
Ar 3.700476 1.985000 0.576755
Ar 1.906145 2.744025 4.624583
Ar 3.605328 4.561638 0.147905
10
Lattice="10.0 0 0 0 10.0 0 0 0 10.0" Properties=species:S:1:pos:R:3 pbc="T T T" Time=431
Ar 4.452398 2.577675 3.635968
Ar 2.097570 3.146019 2.970056
Ar 3.782253 3.411678 1.299143
Ar 4.489792 3.429471 0.955810
Ar 4.066736 1.242264 1.567128
Ar 2.329548 1.019249 1.719476
Ar 3.544682 4.480349 2.829576
Ar 3.706775 1.987316 0.577621
Ar 1.909954 2.749150 4.633168
Ar 3.613690 4.570334 0.148180
10
Lattice="10.0 0 0 0 10.0 0 0 0 10.0" Properties=species:S:1:pos:R:3 pbc="T T T" Time=432
Ar 4.461912 2.581742 3.644287
Ar 2.101801 3.151086 2.976717
Ar 3.789881 3.417657 1.300456
Ar 4.499274 3.437293 0.957844
Ar 4.074258 1.244881 1.568928
Ar 2.332956 1.019485 1.722885
Ar 3.551812 4.489230 2.834483
Ar 3.713073 1.989633 0.578486
Ar 1.913763 2.754275 4.641753
Ar 3.622052 4.579030 0.148455
10
Lattice="10.0 0 0 0 10.0 0 0 0 10.0" Properties=species:S:1:pos:R:3 pbc="T T T" Time=433
Ar 4.471426 2.585810 3.652606
Ar 2.106032 3.156152 2.983379
Ar 3.797509 3.423636 1.301769
Ar 4.508756 3.445115 0.959877
Ar 4.081780 1.247497 1.570727
Ar 2.336364 1.019722 1.726295
Ar 3.558943 4.498112 2.839390
Ar 3.719372 1.991949 0.579351
Ar 1.917573 2.759401 4.650337
Ar 3.630414 4.587726 0.148729
10
Lattice="10.0 0 0 0 10.0 0 0 0 10.0" Properties=species:S:1:pos:R:3 pbc="T T T" Time=434
Ar 4.480940 2.589878 3.660925
Ar 2.110264 3.161219 2.990040
Ar 3.805137 3.429615 1.303082
Ar 4.518239 3.452937 0.961911
Ar 4.089303 1.250114 1.572527
Ar 2.339773 1.019958 1.729705
Ar 3.566074 4.506993 2.844297
Ar 3.725670 1.994266 0.580216
Ar 1.921382 2.764526 4.658922
Ar 3.638776 4.596422 0.149004
10
Lattice="10.0 0 0 0 10.0 0 0 0 10.0" Properties=species:S:1:pos:R:3 pbc="T T T" Time=435
Ar 4.490454 2.593945 3.669244
Ar 2.114495 3.166285 2.996702
Ar 3.812765 3.435594 1.304395
Ar 4.527721 3.460759 0.963944
Ar 4.096825 1.252731 1.574326
Ar 2.343181 1.020195 1.733114
Ar 3.573204 4.515874 2.849204
Ar 3.731969 1.996582 0.581081
Ar 1.925191 2.769651 4.667507
Ar 3.647138 4.605118 0.149278
10
Lattice="10.0 0 0 0 10.0 0 0 0 10.0" Properties=species:S:1:pos:R:3 pbc="T T T" Time=436
Ar 4.499968 2.598013 3.677563
Ar 2.118726 3.171352 3.003363
Ar 3.820393 3.441573 1.305708
Ar 4.537203 3.468581 0.965977
Ar 4.104347 1.255347 1.576125
Ar 2.346589 1.020431 1.736524
Ar 3.580335 4.524756 2.854111
Ar 3.738267 1.998899 0.581947
Ar 1.929000 2.774777 4.676092
Ar 3.655500 4.613814 0.149553
10
Lattice="10.0 0 0 0 10.0 0 0 0 10.0" Properties=species:S:1:pos:R:3 pbc="T T T" Time=437
Ar 4.509482 2.602080 3.685882
Ar 2.122957 3.176419 3.010025
Ar 3.828021 3.447552 1.307021
Ar 4.546685 3.476403 0.968011
Ar 4.111869 1.257964 1.577925
Ar 2.349997 1.020668 1.739933
Ar 3.587466 4.533637 2.859018
Ar 3.744566 2.001215 0.582812
Ar 1.932809 2.779902 4.684677
Ar 3.663862 4.622510 0.149828
10
Lattice="10.0 0 0 0 10.0 0 0 0 10.0" Properties=species:S:1:pos:R:3 pbc="T T T" Time=438
Ar 4.518996 2.606148 3.694201
Ar 2.127188 3.181485 3.016686
Ar 3.835649 3.453531 1.308334
Ar 4.556167 3.484225 0.970044
Ar 4.119391 1.260580 1.579724
Ar 2.353405 1.020904 1.743343
Ar 3.594596 4.542519 2.863925
Ar 3.750864 2.003532 0.583677
Ar 1.936619 2.785027 4.693262
Ar 3.672224 4.631206 0.150102
10
Lattice="10.0 0 0 0 10.0 0 0 0 10.0" Properties=species:S:1:pos:R:3 pbc="T T T" Time=439
Ar 4.528510 2.610216 3.702520
Ar 2.131419 3.186552 3.023348
Ar 3.843277 3.459510 1.309647
Ar 4.565650 3.492047 0.972077
Ar 4.126913 1.263197 1.581524
Ar 2.356813 1.021141 1.746753
Ar 3.601727 4.551400 2.868832
Ar 3.757163 2.005848 0.584542
Ar 1.940428 2.790152 4.701847
Ar 3.680586 4.639902 0.150377
10
Lattice="10.0 0 0 0 10.0 0 0 0 10.0" Properties=species:S:1:pos:R:3 pbc="T T T" Time=440
Ar 4.538024 2.614283 3.710839
Ar 2.135650 3.191619 3.030010
Ar 3.850905 3.465490 1.310960
Ar 4.575132 3.499869 0.974111
Ar 4.134435 1.265813 1.583323
Ar 2.360221 1.021377 1.750162
Ar 3.608857 4.560281 2.873739
Ar 3.763461 2.008165 0.585408
Ar 1.944237 2.795278 4.710432
Ar 3.688948 4.648598 0.150652
10
Lattice="10.0 0 0 0 10.0 0 0 0 10.0" Properties=species:S:1:pos:R:3 pbc="T T T" Time=441
Ar 4.547538 2.618351 3.719158
Ar 2.139881 3.196685 3.036671
Ar 3.858533 3.471469 1.312273
Ar 4.584614 3.507691 0.976144
Ar 4.141957 1.268430 1.585123
Ar 2.363629 1.021614 1.753572
Ar 3.615988 4.569163 2.878646
Ar 3.769760 2.010481 0.586273
Ar 1.948046 2.800403 4.719017
Ar 3.697310 4.657294 0.150926
10
Lattice="10.0 0 0 0 10.0 0 0 0 10.0" Properties=species:S:1:pos:R:3 pbc="T T T" Time=442
Ar 4.557052 2.622418 3.727477
Ar 2.144113 3.201752 3.043333
Ar 3.866161 3.477448 1.313586
Ar 4.594096 3.515513 0.978177
Ar 4.149479 1.271047 1.586922
Ar 2.367037 1.021850 1.756981
Ar 3.623119 4.578044 2.883553
Ar 3.776058 2.012798 0.587138
Ar 1.951855 2.805528 4.727602
Ar 3.705672 4.665989 0.151201
10
Lattice="10.0 0 0 0 10.0 0 0 0 10.0" Properties=species:S:1:pos:R:3 pbc="T T T" Time=443
Ar 4.566566 2.626486 3.735796
Ar 2.148344 3.206819 3.049994
Ar 3.873789 3.483427 1.314899
Ar 4.603578 3.523335 0.980211
Ar 4.157001 1.273663 1.588721
Ar 2.370445 1.022087 1.760391
Ar 3.630249 4.586926 2.888460
Ar 3.782357 2.015114 0.588003
Ar 1.955664 2.810654 4.736186
Ar 3.714034 4.674685 0.151475
10
Lattice="10.0 0 0 0 10.0 0 0 0 10.0" Properties=species:S:1:pos:R:3 pbc="T T T" Time=444
Ar 4.576081 2.630554 3.744115
Ar 2.152575 3.211885 3.056656
Ar 3.881417 3.489406 1.316212
Ar 4.613061 3.531158 0.982244
Ar 4.164523 1.276280 1.590521
Ar 2.373853 1.022323 1.763801
Ar 3.637380 4.595807 2.893367
Ar 3.788655 2.017431 0.588868
Ar 1.959474 2.815779 4.744771
Ar 3.722396 4.683381 0.151750
10
Lattice="10.0 0 0 0 10.0 0 0 0 10.0" Properties=species:S:1:pos:R:3 pbc="T T T" Time=445
Ar 4.585595 2.634621 3.752434
Ar 2.156806 3.216952 3.063317
Ar 3.889045 3.495385 1.317525
Ar 4.622543 3.538980 0.984277
Ar 4.172045 1.278896 1.592320
Ar 2.377261 1.022560 1.767210
Ar 3.644511 4.604688 2.898275
Ar 3.794954 2.019747 0.589734
Ar 1.963283 2.820904 4.753356
Ar 3.730757 4.692077 0.152025
10
Lattice="10.0 0 0 0 10.0 0 0 0 10.0" Properties=species:S:1:pos:R:3 pbc="T T T" Time=446
Ar 4.595109 2.638689 3.760753
Ar 2.161037 3.222019 3.069979
Ar 3.896673 3.501364 1.318838
Ar 4.632025 3.546802 0.986311
Ar 4.179568 1.281513 1.594120
Ar 2.380670 1.022796 1.770620
Ar 3.651641 4.613570 2.903182
Ar 3.801252 2.022064 0.590599
Ar 1.967092 2.826030 4.761941
Ar 3.739119 4.700773 0.152299
10
Lattice="10.0 0 0 0 10.0 0 0 0 10.0" Properties=species:S:1:pos:R:3 pbc="T T T" Time=447
Ar 4.604623 2.642756 3.769072
Ar 2.165268 3.227085 3.076640
Ar 3.904301 3.507343 1.320151
Ar 4.641507 3.554624 0.988344
Ar 4.187090 1.284129 1.595919
Ar 2.384078 1.023033 1.774029
Ar 3.658772 4.622451 2.908089
Ar 3.807551 2.024380 0.591464
Ar 1.970901 2.831155 4.770526
Ar 3.747481 4.709469 0.152574
10
Lattice="10.0 0 0 0 10.0 0 0 0 10.0" Properties=species:S:1:pos:R:3 pbc="T T T" Time=448
Ar 4.614137 2.646824 3.777391
Ar 2.169499 3.232152 3.083302
Ar 3.911929 3.513322 1.321464
Ar 4.650989 3.562446 0.990377
Ar 4.194612 1.286746 1.597719
Ar 2.387486 1.023269 1.777439
Ar 3.665903 4.631333 2.912996
Ar 3.813849 2.026697 0.592329
Ar 1.974710 2.836280 4.779111
Ar 3.755843 4.718165 0.152849
10
Lattice="10.0 0 0 0 10.0 0 0 0 10.0" Properties=species:S:1:pos:R:3 pbc="T T T" Time=449
Ar 4.623651 2.650892 3.785710
Ar 2.173731 3.237218 3.089963
Ar 3.919557 3.519301 1.322777
Ar 4.660472 3.570268 0.992411
Ar 4.202134 1.289363 1.599518
Ar 2.390894 1.023505 1.780849
Ar 3.673033 4.640214 2.917903
Ar 3.820148 2.029013 0.593194
Ar 1.978519 2.841406 4.787696
Ar 3.764205 4.726861 0.153123
10
Lattice="10.0 0 0 0 10.0 0 0 0 10.0" Properties=species:S:1:pos:R:3 pbc="T T T" Time=450
Ar 4.633165 2.654959 3.794029
Ar 2.177962 3.242285 3.096625
Ar 3.927185 3.525280 1.324090
Ar 4.669954 3.578090 0.994444
Ar 4.209656 1.291979 1.601317
Ar 2.394302 1.023742 1.784258
Ar 3.680164 4.649095 2.922810
Ar 3.826446 2.031330 0.594060
Ar 1.982329 2.846531 4.796281
Ar 3.772567 4.735557 0.153398
10
Lattice="10.0 0 0 0 10.0 0 0 0 10.0" Properties=species:S:1:pos:R:3 pbc="T T T" Time=451
Ar 4.642679 2.659027 3.802348
Ar 2.182193 3.247352 3.103286
Ar 3.934813 3.531259 1.325403
Ar 4.679436 3.585912 0.996478
Ar 4.217178 1.294596 1.603117
Ar 2.397710 1.023978 1.787668
Ar 3.687294 4.657977 2.927717
Ar 3.832745 2.033646 0.594925
Ar 1.986138 2.851656 4.804866
Ar 3.780929 4.744253 0.153672
10
Lattice="10.0 0 0 0 10.0 0 0 0 10.0" Properties=species:S:1:pos:R:3 pbc="T T T" Time=452
Ar 4.652193 2.663094 3.810667
Ar 2.186424 3.252418 3.109948
Ar 3.942441 3.537238 1.326716
Ar 4.688918 3.593734 0.998511
Ar 4.224700 1.297212 1.604916
Ar 2.401118 1.024215 1.791077
Ar 3.694425 4.666858 2.932624
Ar 3.839043 2.035963 0.595790
Ar 1.989947 2.856782 4.813450
Ar 3.789291 4.752949 0.153947
10
Lattice="10.0 0 0 0 10.0 0 0 0 10.0" Properties=species:S:1:pos:R:3 pbc="T T T" Time=453
Ar 4.661707 2.667162 3.818986
Ar 2.190655 3.257485 3.116610
Ar 3.950069 3.543218 1.328029
Ar 4.698400 3.601556 1.000544
Ar 4.232222 1.299829 1.606716
Ar 2.404526 1.024451 1.794487
Ar 3.701556 4.675740 2.937531
Ar 3.845342 2.038279 0.596655
Ar 1.993756 2.861907 4.822035
Ar 3.797653 4.761645 0.154222
10
Lattice="10.0 0 0 0 10.0 0 0 0 10.0" Properties=species:S:1:pos:R:3 pbc="T T T" Time=454
Ar 4.671221 2.671230 3.827305
Ar 2.194886 3.262552 3.123271
Ar 3.957697 3.549197 1.329342
Ar 4.707883 3.609378 1.002578
Ar 4.239744 1.302445 1.608515
Ar 2.407934 1.024688 1.797897
Ar 3.708686 4.684621 2.942438
Ar 3.851640 2.040596 0.597520
Ar 1.997565 2.867032 4.830620
Ar 3.806015 4.770341 0.154496
10
Lattice="10.0 0 0 0 10.0 0 0 0 10.0" Properties=species:S:1:pos:R:3 pbc="T T T" Time=455
Ar 4.680735 2.675297 3.835624
Ar 2.199117 3.267618 3.129933
Ar 3.965325 3.555176 1.330655
Ar 4.717365 3.617200 1.004611
Ar 4.247266 1.305062 1.610314
Ar 2.411342 1.024924 1.801306
Ar 3.715817 4.693502 2.947345
Ar 3.857939 2.042912 0.598386
Ar 2.001375 2.872158 4.839205
Ar 3.814377 4.779037 0.154771
10
Lattice="10.0 0 0 0 10.0 0 0 0 10.0" Properties=species:S:1:pos:R:3 pbc="T T T" Time=456
Ar 4.690249 2.679365 3.843943
Ar 2.203349 3.272685 3.136594
Ar 3.972953 3.561155 1.331968
Ar 4.726847 3.625022 1.006644
Ar 4.254788 1.307679 1.612114
Ar 2.414750 1.025161 1.804716
Ar 3.722948 4.702384 2.952252
Ar 3.864237 2.045229 0.599251
Ar 2.005184 2.877283 4.847790
Ar 3.822739 4.787733 0.155045
10
Lattice="10.0 0 0 0 10.0 0 0 0 10.0" Properties=species:S:1:pos:R:3 pbc="T T T" Time=457
Ar 4.699763 2.683432 3.852262
Ar 2.207580 3.277752 3.143256
Ar 3.980581 3.567134 1.333281
Ar 4.736329 3.632845 1.008678
Ar 4.262310 1.310295 1.613913
Ar 2.418159 1.025397 1.808125
Ar 3.730078 4.711265 2.957159
Ar 3.870536 2.047545 0.600116
Ar 2.008993 2.882408 4.856375
Ar 3.831101 4.796429 0.155320
10
Lattice="10.0 0 0 0 10.0 0 0 0 10.0" Properties=species:S:1:pos:R:3 pbc="T T T" Time=458
Ar 4.709277 2.687500 3.860581
Ar 2.211811 3.282818 3.149917
Ar 3.988209 3.573113 1.334594
Ar 4.745811 3.640667 1.010711
Ar 4.269833 1.312912 1.615713
Ar 2.421567 1.025634 1.811535
Ar 3.737209 4.720147 2.962066
Ar 3.876834 2.049862 0.600981
Ar 2.012802 2.887534 4.864960
Ar 3.839463 4.805125 0.155595
10
Lattice="10.0 0 0 0 10.0 0 0 0 10.0" Properties=species:S:1:pos:R:3 pbc="T T T" Time=459
Ar 4.718791 2.691567 3.868900
Ar 2.216042 3.287885 3.156579
Ar 3.995837 3.579092 1.335907
Ar 4.755294 3.648489 1.012744
Ar 4.277355 1.315528 1.617512
Ar 2.424975 1.025870 1.814945
Ar 3.744339 4.729028 2.966973
Ar 3.883133 2.052178 0.601846
Ar 2.016611 2.892659 4.873545
Ar 3.847825 4.813821 0.155869
10
Lattice="10.0 0 0 0 10.0 0 0 0 10.0" Properties=species:S:1:pos:R:3 pbc="T T T" Time=460
Ar 4.728305 2.695635 3.877219
Ar 2.220273 3.292952 3.163240
Ar 4.003465 3.585071 1.337220
Ar 4.764776 3.656311 1.014778
Ar 4.284877 1.318145 1.619312
Ar 2.428383 1.026107 1.818354
Ar 3.751470 4.737909 2.971880
Ar 3.889431 2.054495 0.602712
Ar 2.020420 2.897784 4.882130
Ar 3.856187 4.822517 0.156144
10
Lattice="10.0 0 0 0 10.0 0 0 0 10.0" Properties=species:S:1:pos:R:3 pbc="T T T" Time=461
Ar 4.737819 2.699703 3.885538
Ar 2.224504 3.298018 3.169902
Ar 4.011093 3.591050 1.338533
Ar 4.774258 3.664133 1.016811
Ar 4.292399 1.320761 1.621111
Ar 2.431791 1.026343 1.821764
Ar 3.758601 4.746791 2.976787
Ar 3.895730 2.056811 0.603577
Ar 2.024230 2.902910 4.890715
Ar 3.864549 4.831213 0.156419
10
Lattice="10.0 0 0 0 10.0 0 0 0 10.0" Properties=species:S:1:pos:R:3 pbc="T T T" Time=462
Ar 4.747333 2.703770 3.893857
Ar 2.228735 3.303085 3.176563
Ar 4.018721 3.597029 1.339846
Ar 4.783740 3.671955 1.018844
Ar 4.299921 1.323378 1.622910
Ar 2.435199 1.026580 1.825173
Ar 3.765731 4.755672 2.981694
Ar 3.902028 2.059128 0.604442
Ar 2.028039 2.908035 4.899299
Ar 3.872911 4.839909 0.156693
10
Lattice="10.0 0 0 0 10.0 0 0 0 10.0" Properties=species:S:1:pos:R:3 pbc="T T T" Time=463
Ar 4.756847 2.707838 3.902176
Ar 2.232966 3.308151 3.183225
Ar 4.026349 3.603008 1.341159
Ar 4.793223 3.679777 1.020878
Ar 4.307443 1.325995 1.624710
Ar 2.438607 1.026816 1.828583
Ar 3.772862 4.764553 2.986601
Ar 3.908327 2.061444 0.605307
Ar 2.031848 2.913160 4.907884
Ar 3.881273 4.848605 0.156968
10
Lattice="10.0 0 0 0 10.0 0 0 0 10.0" Properties=species:S:1:pos:R:3 pbc="T T T" Time=464
Ar 4.766361 2.711905 3.910495
Ar 2.237198 3.313218 3.189887
Ar 4.033977 3.608987 1.342472
Ar 4.802705 3.687599 1.022911
Ar 4.314965 1.328611 1.626509
Ar 2.442015 1.027053 1.831993
Ar 3.779993 4.773435 2.991508
Ar 3.914625 2.063761 0.606172
Ar 2.035657 2.918286 4.916469
Ar 3.889635 4.857300 0.157242
10
Lattice="10.0 0 0 0 10.0 0 0 0 10.0" Properties=species:S:1:pos:R:3 pbc="T T T" Time=465
Ar 4.775875 2.715973 3.918814
Ar 2.241429 3.318285 3.196548
Ar 4.041605 3.614966 1.343785
Ar 4.812187 3.695421 1.024944
Ar 4.322487 1.331228 1.628309
Ar 2.445423 1.027289 1.835402
Ar 3.787123 4.782316 2.996415
Ar 3.920924 2.066077 0.607038
Ar 2.039466 2.923411 4.925054
Ar 3.897997 4.865996 0.157517
10
Lattice="10.0 0 0 0 10.0 0 0 0 10.0" Properties=species:S:1:pos:R:3 pbc="T T T" Time=466
Ar 4.785390 2.720041 3.927133
Ar 2.245660 3.323351 3.203210
Ar 4.049233 3.620946 1.345098
Ar 4.821669 3.703243 1.026978
Ar 4.330009 1.333844 1.630108
Ar 2.448831 1.027526 1.838812
Ar 3.794254 4.791198 3.001323
Ar 3.927222 2.068394 0.607903
Ar 2.043275 2.928536 4.933639
Ar 3.906359 4.874692 0.157792
10
Lattice="10.0 0 0 0 10.0 0 0 0 10.0" Properties=species:S:1:pos:R:3 pbc="T T T" Time=467
Ar 4.794904 2.724108 3.935452
Ar 2.249891 3.328418 3.209871
Ar 4.056860 3.626925 1.346411
Ar 4.831151 3.711065 1.029011
Ar 4.337531 1.336461 1.631908
Ar 2.452239 1.027762 1.842221
Ar 3.801384 4.800079 3.006230
Ar 3.933521 2.070710 0.608768
Ar 2.047085 2.933661 4.942224
Ar 3.914721 4.883388 0.158066
10
Lattice="10.0 0 0 0 10.0 0 0 0 10.0" Properties=species:S:1:pos:R:3 pbc="T T T" Time=468
Ar 4.804418 2.728176 3.943771
Ar 2.254122 3.333485 3.216533
Ar 4.064488 3.632904 1.347724
Ar 4.840634 3.718887 1.031045
Ar 4.345053 1.339077 1.633707
Ar 2.455647 1.027998 1.845631
Ar 3.808515 4.808960 3.011137
Ar 3.939819 2.073027 0.609633
Ar 2.050894 2.938787 4.950809
Ar 3.923083 4.892084 0.158341
10
Lattice="10.0 0 0 0 10.0 0 0 0 10.0" Properties=species:S:1:pos:R:3 pbc="T T T" Time=469
Ar 4.813932 2.732243 3.952090
Ar 2.258353 3.338551 3.223194
Ar 4.072116 3.638883 1.349037
Ar 4.850116 3.726709 1.033078
Ar 4.352576 1.341694 1.635506
Ar 2.459056 1.028235 1.849041
Ar 3.815646 4.817842 3.016044
Ar 3.946118 2.075343 0.610498
Ar 2.054703 2.943912 4.959394
Ar 3.931445 4.900780 0.158615
10
Lattice="10.0 0 0 0 10.0 0 0 0 10.0" Properties=species:S:1:pos:R:3 pbc="T T T" Time=470
Ar 4.823446 2.736311 3.960409
Ar 2.262584 3.343618 3.229856
Ar 4.079744 3.644862 1.350350
Ar 4.859598 3.734532 1.035111
Ar 4.360098 1.344311 1.637306
Ar 2.462464 1.028471 1.852450
Ar 3.822776 4.826723 3.020951
Ar 3.952416 2.077660 0.611364
Ar 2.058512 2.949037 4.967979
Ar 3.939807 4.909476 0.158890
10
Lattice="10.0 0 0 0 10.0 0 0 0 10.0" Properties=species:S:1:pos:R:3 pbc="T T T" Time=471
Ar 4.832960 2.740379 3.968728
Ar 2.266816 3.348685 3.236517
Ar 4.087372 3.650841 1.351663
Ar 4.869080 3.742354 1.037145
Ar 4.367620 1.346927 1.639105
Ar 2.465872 1.028708 1.855860
Ar 3.829907 4.835605 3.025858
Ar 3.958715 2.079976 0.612229
Ar 2.062321 2.954163 4.976563
Ar 3.948169 4.918172 0.159165
10
Lattice="10.0 0 0 0 10.0 0 0 0 10.0" Properties=species:S:1:pos:R:3 pbc="T T T" Time=472
Ar 4.842474 2.744446 3.977047
Ar 2.271047 3.353751 3.243179
Ar 4.095000 3.656820 1.352976
Ar 4.878562 3.750176 1.039178
Ar 4.375142 1.349544 1.640905
Ar 2.469280 1.028944 1.859269
Ar 3.837038 4.844486 3.030765
Ar 3.965013 2.082293 0.613094
Ar 2.066131 2.959288 4.985148
Ar 3.956530 4.926868 0.159439
10
Lattice="10.0 0 0 0 10.0 0 0 0 10.0" Properties=species:S:1:pos:R:3 pbc="T T T" Time=473
Ar 4.851988 2.748514 3.985366
Ar 2.275278 3.358818 3.249840
Ar 4.102628 3.662799 1.354289
Ar 4.888045 3.757998 1.041211
Ar 4.382664 1.352160 1.642704
Ar 2.472688 1.029181 1.862679
Ar 3.844168 4.853367 3.035672
Ar 3.971312 2.084609 0.613959
Ar 2.069940 2.964413 4.993733
Ar 3.964892 4.935564 0.159714
10
Lattice="10.0 0 0 0 10.0 0 0 0 10.0" Properties=species:S:1:pos:R:3 pbc="T T T" Time=474
Ar 4.861502 2.752581 3.993685
Ar 2.279509 3.363885 3.256502
Ar 4.110256 3.668778 1.355602
Ar 4.897527 3.765820 1.043245
Ar 4.390186 1.354777 1.644504
Ar 2.476096 1.029417 1.866089
Ar 3.851299 4.862249 3.040579
Ar 3.977610 2.086925 0.614824
Ar 2.073749 2.969539 5.002318
Ar 3.973254 4.944260 0.159989
10
Lattice="10.0 0 0 0 10.0 0 0 0 10.0" Properties=species:S:1:pos:R:3 pbc="T T T" Time=475
Ar 4.871016 2.756649 4.002004
Ar 2.283740 3.368951 3.263163
Ar 4.117884 3.674757 1.356915
Ar 4.907009 3.773642 1.045278
Ar 4.397708 1.357393 1.646303
Ar 2.479504 1.029654 1.869498
Ar 3.858430 4.871130 3.045486
Ar 3.983909 2.089242 0.615690
Ar 2.077558 2.974664 5.010903
Ar 3.981616 4.952956 0.160263
10
Lattice="10.0 0 0 0 10.0 0 0 0 10.0" Properties=species:S:1:pos:R:3 pbc="T T T" Time=476
Ar 4.880530 2.760717 4.010323
Ar 2.287971 3.374018 3.269825
Ar 4.125512 3.680736 1.358228
Ar 4.916491 3.781464 1.047311
Ar 4.405230 1.360010 1.648102
Ar 2.482912 1.029890 1.872908
Ar 3.865560 4.880012 3.050393
Ar 3.990207 2.091558 0.616555
Ar 2.081367 2.979789 5.019488
Ar 3.989978 4.961652 0.160538
10
Lattice="10.0 0 0 0 10.0 0 0 0 10.0" Properties=species:S:1:pos:R:3 pbc="T T T" Time=477
Ar 4.890044 2.764784 4.018642
Ar 2.292202 3.379084 3.276487
Ar 4.133140 3.686715 1.359541
Ar 4.925973 3.789286 1.049345
Ar 4.412752 1.362627 1.649902
Ar 2.486320 1.030127 1.876317
Ar 3.872691 4.888893 3.055300
Ar 3.996506 2.093875 0.617420
Ar 2.085176 2.984915 5.028073
Ar 3.998340 4.970348 0.160812
10
Lattice="10.0 0 0 0 10.0 0 0 0 10.0" Properties=species:S:1:pos:R:3 pbc="T T T" Time=478
Ar 4.899558 2.768852 4.026961
Ar 2.296433 3.384151 3.283148
Ar 4.140768 3.692694 1.360854
Ar 4.935456 3.797108 1.051378
Ar 4.420274 1.365243 1.651701
Ar 2.489728 1.030363 1.879727
Ar 3.879821 4.897774 3.060207
Ar 4.002804 2.096191 0.618285
Ar 2.088986 2.990040 5.036658
Ar 4.006702 4.979044 0.161087
10
Lattice="10.0 0 0 0 10.0 0 0 0 10.0" Properties=species:S:1:pos:R:3 pbc="T T T" Time=479
Ar 4.909072 2.772919 4.035280
Ar 2.300665 3.389218 3.289810
Ar 4.148396 3.698674 1.362167
Ar 4.944938 3.804930 1.053411
Ar 4.427796 1.367860 1.653501
Ar 2.493136 1.030600 1.883137
Ar 3.886952 4.906656 3.065114
Ar 4.009103 2.098508 0.619150
Ar 2.092795 2.995165 5.045243
Ar 4.015064 4.987740 0.161362
10
Lattice="10.0 0 0 0 10.0 0 0 0 10.0" Properties=species:S:1:pos:R:3 pbc="T T T" Time=480
Ar 4.918586 2.776987 4.043599
Ar 2.304896 3.394284 3.296471
Ar 4.156024 3.704653 1.363480
Ar 4.954420 3.812752 1.055445
Ar 4.435318 1.370476 1.655300
Ar 2.496544 1.030836 1.886546
Ar 3.894083 4.915537 3.070021
Ar 4.015401 2.100824 0.620016
Ar 2.096604 3.000291 5.053828
Ar 4.023426 4.996436 0.161636
10
Lattice="10.0 0 0 0 10.0 0 0 0 10.0" Properties=species:S:1:pos:R:3 pbc="T T T" Time=481
Ar 4.928100 2.781055 4.051918
Ar 2.309127 3.399351 3.303133
Ar 4.163652 3.710632 1.364793
Ar 4.963902 3.820574 1.057478
Ar 4.442841 1.373093 1.657100
Ar 2.499953 1.031073 1.889956
Ar 3.901213 4.924419 3.074928
Ar 4.021700 2.103141 0.620881
Ar 2.100413 3.005416 5.062412
Ar 4.031788 5.005132 0.161911
10
Lattice="10.0 0 0 0 10.0 0 0 0 10.0" Properties=species:S:1:pos:R:3 pbc="T T T" Time=482
Ar 4.937614 2.785122 4.060237
Ar 2.313358 3.404418 3.309794
Ar 4.171280 3.716611 1.366106
Ar 4.973384 3.828397 1.059511
Ar 4.450363 1.375709 1.658899
Ar 2.503361 1.031309 1.893365
Ar 3.908344 4.933300 3.079835
Ar 4.027998 2.105457 0.621746
Ar 2.104222 3.010541 5.070997
Ar 4.040150 5.013828 0.162186
10
Lattice="10.0 0 0 0 10.0 0 0 0 10.0" Properties=species:S:1:pos:R:3 pbc="T T T" Time=483
Ar 4.947128 2.789190 4.068556
Ar 2.317589 3.409484 3.316456
Ar 4.178908 3.722590 1.367419
Ar 4.982867 3.836219 1.061545
Ar 4.457885 1.378326 1.660698
Ar 2.506769 1.031546 1.896775
Ar 3.915475 4.942181 3.084742
Ar 4.034297 2.107774 0.622611
Ar 2.108031 3.015667 5.079582
Ar 4.048512 5.022524 0.162460
10
Lattice="10.0 0 0 0 10.0 0 0 0 10.0" Properties=species:S:1:pos:R:3 pbc="T T T" Time=484
Ar 4.956642 2.793257 4.076875
Ar 2.321820 3.414551 3.323117
Ar 4.186536 3.728569 1.368732
Ar 4.992349 3.844041 1.063578
Ar 4.465407 1.380943 1.662498
Ar 2.510177 1.031782 1.900185
Ar 3.922605 4.951063 3.089649
Ar 4.040595 2.110090 0.623476
Ar 2.111841 3.020792 5.088167
Ar 4.056874 5.031220 0.162735
10
Lattice="10.0 0 0 0 10.0 0 0 0 10.0" Properties=species:S:1:pos:R:3 pbc="T T T" Time=485
Ar 4.966156 2.797325 4.085194
Ar 2.326051 3.419618 3.329779
Ar 4.194164 3.734548 1.370045
Ar 5.001831 3.851863 1.065612
Ar 4.472929 1.383559 1.664297
Ar 2.513585 1.032019 1.903594
Ar 3.929736 4.959944 3.094556
Ar 4.046894 2.112407 0.624342
Ar 2.115650 3.025917 5.096752
Ar 4.065236 5.039915 0.163009
10
Lattice="10.0 0 0 0 10.0 0 0 0 10.0" Properties=species:S:1:pos:R:3 pbc="T T T" Time=486
Ar 4.975670 2.801392 4.093513
Ar 2.330283 3.424684 3.336440
Ar 4.201792 3.740527 1.371358
Ar 5.011313 3.859685 1.067645
Ar 4.480451 1.386176 1.666097
Ar 2.516993 1.032255 1.907004
Ar 3.936866 4.968825 3.099463
Ar 4.053192 2.114723 0.625207
Ar 2.119459 3.031043 5.105337
Ar 4.073598 5.048611 0.163284
10
Lattice="10.0 0 0 0 10.0 0 0 0 10.0" Properties=species:S:1:pos:R:3 pbc="T T T" Time=487
Ar 4.985184 2.805460 4.101832
Ar 2.334514 3.429751 3.343102
Ar 4.209420 3.746506 1.372671
Ar 5.020795 3.867507 1.069678
Ar 4.487973 1.388792 1.667896
Ar 2.520401 1.032491 1.910413
Ar 3.943997 4.977707 3.104371
Ar 4.059491 2.117040 0.626072
Ar 2.123268 3.036168 5.113922
Ar 4.081960 5.057307 0.163559
10
Lattice="10.0 0 0 0 10.0 0 0 0 10.0" Properties=species:S:1:pos:R:3 pbc="T T T" Time=488
Ar 4.994698 2.809528 4.110151
Ar 2.338745 3.434817 3.349763
Ar 4.217048 3.752485 1.373984
Ar 5.030278 3.875329 1.071712
Ar 4.495495 1.391409 1.669695
Ar 2.523809 1.032728 1.913823
Ar 3.951128 4.986588 3.109278
Ar 4.065789 2.119356 0.626937
Ar 2.127077 3.041293 5.122507
Ar 4.090322 5.066003 0.163833
10
Lattice="10.0 0 0 0 10.0 0 0 0 10.0" Properties=species:S:1:pos:R:3 pbc="T T T" Time=489
Ar 5.004213 2.813595 4.118470
Ar 2.342976 3.439884 3.356425
Ar 4.224676 3.758464 1.375297
Ar 5.039760 3.883151 1.073745
Ar 4.503017 1.394025 1.671495
Ar 2.527217 1.032964 1.917233
Ar 3.958258 4.995470 3.114185
Ar 4.072088 2.121673 0.627802
Ar 2.130887 3.046419 5.131092
Ar 4.098684 5.074699 0.164108
10
Lattice="10.0 0 0 0 10.0 0 0 0 10.0" Properties=species:S:1:pos:R:3 pbc="T T T" Time=490
Ar 5.013727 2.817663 4.126789
Ar 2.347207 3.444951 3.363087
Ar 4.232304 3.764443 1.376610
Ar 5.049242 3.890973 1.075778
Ar 4.510539 1.396642 1.673294
Ar 2.530625 1.033201 1.920642
Ar 3.965389 5.004351 3.119092
Ar 4.078386 2.123989 0.628668
Ar 2.134696 3.051544 5.139677
Ar 4.107046 5.083395 0.164382
10
Lattice="10.0 0 0 0 10.0 0 0 0 10.0" Properties=species:S:1:pos:R:3 pbc="T T T" Time=491
Ar 5.023241 2.821730 4.135108
Ar 2.351438 3.450017 3.369748
Ar 4.239932 3.770422 1.377923
Ar 5.058724 3.898795 1.077812
Ar 4.518061 1.399259 1.675094
Ar 2.534033 1.033437 1.924052
Ar 3.972520 5.013232 3.123999
Ar 4.084685 2.126306 0.629533
Ar 2.138505 3.056669 5.148261
Ar 4.115408 5.092091 0.164657
10
Lattice="10.0 0 0 0 10.0 0 0 0 10.0" Properties=species:S:1:pos:R:3 pbc="T T T" Time=492
Ar 5.032755 2.825798 4.143427
Ar 2.355669 3.455084 3.376410
Ar 4.247560 3.776402 1.379236
Ar 5.068206 3.906617 1.079845
Ar 4.525583 1.401875 1.676893
Ar 2.537441 1.033674 1.927461
Ar 3.979650 5.022114 3.128906
Ar 4.090983 2.128622 0.630398
Ar 2.142314 3.061794 5.156846
Ar 4.123770 5.100787 0.164932
10
Lattice="10.0 0 0 0 10.0 0 0 0 10.0" Properties=species:S:1:pos:R:3 pbc="T T T" Time=493
Ar 5.042269 2.829866 4.151746
Ar 2.359901 3.460151 3.383071
Ar 4.255188 3.782381 1.380549
Ar 5.077689 3.914439 1.081878
Ar 4.533106 1.404492 1.678693
Ar 2.540850 1.033910 1.930871
Ar 3.986781 5.030995 3.133813
Ar 4.097282 2.130939 0.631263
Ar 2.146123 3.066920 5.165431
Ar 4.132132 5.109483 0.165206
10
Lattice="10.0 0 0 0 10.0 0 0 0 10.0" Properties=species:S:1:pos:R:3 pbc="T T T" Time=494
Ar 5.051783 2.833933 4.160065
Ar 2.364132 3.465217 3.389733
Ar 4.262816 3.788360 1.381862
Ar 5.087171 3.922261 1.083912
Ar 4.540628 1.407108 1.680492
Ar 2.544258 1.034147 1.934281
Ar 3.993911 5.039877 3.138720
Ar 4.103580 2.133255 0.632128
Ar 2.149932 3.072045 5.174016
Ar 4.140494 5.118179 0.165481
10
Lattice="10.0 0 0 0 10.0 0 0 0 10.0" Properties=species:S:1:pos:R:3 pbc="T T T" Time=495
Ar 5.061297 2.838001 4.168384
Ar 2.368363 3.470284 3.396394
Ar 4.270444 3.794339 1.383175
Ar 5.096653 3.930084 1.085945
Ar 4.548150 1.409725 1.682291
Ar 2.547666 1.034383 1.937690
Ar 4.001042 5.048758 3.143627
Ar 4.109879 2.135572 0.632994
Ar 2.153742 3.077170 5.182601
Ar 4.148856 5.126875 0.165756
10
Lattice="10.0 0 0 0 10.0 0 0 0 10.0" Properties=species:S:1:pos:R:3 pbc="T T T" Time=496
Ar 5.070811 2.842068 4.176703
Ar 2.372594 3.475351 3.403056
Ar 4.278072 3.800318 1.384488
Ar 5.106135 3.937906 1.087978
Ar 4.555672 1.412341 1.684091
Ar 2.551074 1.034620 1.941100
Ar 4.008173 5.057639 3.148534
Ar 4.116177 2.137888 0.633859
Ar 2.157551 3.082296 5.191186
Ar 4.157218 5.135571 0.166030
10
Lattice="10.0 0 0 0 10.0 0 0 0 10.0" Properties=species:S:1:pos:R:3 pbc="T T T" Time=497
Ar 5.080325 2.846136 4.185022
Ar 2.376825 3.480417 3.409717
Ar 4.285700 3.806297 1.385801
Ar 5.115617 3.945728 1.090012
Ar 4.563194 1.414958 1.685890
Ar 2.554482 1.034856 1.944509
Ar 4.015303 5.066521 3.153441
Ar 4.122476 2.140205 0.634724
Ar 2.161360 3.087421 5.199771
Ar 4.165580 5.144267 0.166305
10
Lattice="10.0 0 0 0 10.0 0 0 0 10.0" Properties=species:S:1:pos:R:3 pbc="T T T" Time=498
Ar 5.089839 2.850204 4.193341
Ar 2.381056 3.485484 3.416379
Ar 4.293328 3.812276 1.387114
Ar 5.125100 3.953550 1.092045
Ar 4.570716 1.417575 1.687690
Ar 2.557890 1.035093 1.947919
Ar 4.022434 5.075402 3.158348
Ar 4.128774 2.142521 0.635589
Ar 2.165169 3.092546 5.208356
Ar 4.173942 5.152963 0.166579
10
Lattice="10.0 0 0 0 10.0 0 0 0 10.0" Properties=species:S:1:pos:R:3 pbc="T T T" Time=499
Ar 5.099353 2.854271 4.201660
Ar 2.385287 3.490551 3.423040
Ar 4.300956 3.818255 1.388427
Ar 5.134582 3.961372 1.094078
Ar 4.578238 1.420191 1.689489
Ar 2.561298 1.035329 1.951329
Ar 4.029565 5.084284 3.163255
Ar 4.135073 2.144838 0.636455
Ar 2.168978 3.097672 5.216941
Ar 4.182303 5.161659 0.166854
10
Lattice="10.0 0 0 0 10.0 0 0 0 10.0" Properties=species:S:1:pos:R:3 pbc="T T T" Time=500
Ar 5.108867 2.858339 4.209979
Ar 2.389518 3.495617 3.429702
Ar 4.308584 3.824234 1.389740
Ar 5.144064 3.969194 1.096112
Ar 4.585760 1.422808 1.691289
Ar 2.564706 1.035566 1.954738
Ar 4.036695 5.093165 3.168162
Ar 4.141371 2.147154 0.637320
Ar 2.172788 3.102797 5.225525
Ar 4.190665 5.170355 0.167129
10
Lattice="10.0 0 0 0 10.0 0 0 0 10.0" Properties=species:S:1:pos:R:3 pbc="T T T" Time=501
Ar 5.118381 2.862406 4.218298
Ar 2.393750 3.500684 3.436364
Ar 4.316212 3.830213 1.391053
Ar 5.153546 3.977016 1.098145
Ar 4.593282 1.425424 1.693088
Ar 2.568114 1.035802 1.958148
Ar 4.043826 5.102046 3.173069
Ar 4.147670 2.149471 0.638185
Ar 2.176597 3.107922 5.234110
Ar 4.199027 5.179051 0.167403
10
Lattice="10.0 0 0 0 10.0 0 0 0 10.0" Properties=species:S:1:pos:R:3 pbc="T T T" Time=502
Ar 5.127895 2.866474 4.226617
Ar 2.397981 3.505750 3.443025
Ar 4.323840 3.836192 1.392366
Ar 5.163028 3.984838 1.100179
Ar 4.600804 1.428041 1.694887
Ar 2.571522 1.036039 1.961557
Ar 4.050956 5.110928 3.177976
Ar 4.153968 2.151787 0.639050
Ar 2.180406 3.113048 5.242695
Ar 4.207389 5.187747 0.167678
10
Lattice="10.0 0 0 0 10.0 0 0 0 10.0" Properties=species:S:1:pos:R:3 pbc="T T T" Time=503
Ar 5.137409 2.870542 4.234936
Ar 2.402212 3.510817 3.449687
Ar 4.331468 3.842171 1.393679
Ar 5.172511 3.992660 1.102212
Ar 4.608326 1.430657 1.696687
Ar 2.574930 1.036275 1.964967
Ar 4.058087 5.119809 3.182883
Ar 4.160267 2.154104 0.639915
Ar 2.184215 3.118173 5.251280
Ar 4.215751 5.196443 0.167952
10
Lattice="10.0 0 0 0 10.0 0 0 0 10.0" Properties=species:S:1:pos:R:3 pbc="T T T" Time=504
Ar 5.146923 2.874609 4.243255
Ar 2.406443 3.515884 3.456348
Ar 4.339096 3.848150 1.394992
Ar 5.181993 4.000482 1.104245
Ar 4.615849 1.433274 1.698486
Ar 2.578338 1.036512 1.968377
Ar 4.065218 5.128691 3.187790
Ar 4.166565 2.156420 0.640781
Ar 2.188024 3.123298 5.259865
Ar 4.224113 5.205139 0.168227
10
Lattice="10.0 0 0 0 10.0 0 0 0 10.0" Properties=species:S:1:pos:R:3 pbc="T T T" Time=505
Ar 5.156437 2.878677 4.251574
Ar 2.410674 3.520950 3.463010
Ar 4.346724 3.854130 1.396305
Ar 5.191475 4.008304 1.106279
Ar 4.623371 1.435891 1.700286
Ar 2.581747 1.036748 1.971786
Ar 4.072348 5.137572 3.192697
Ar 4.172864 2.158737 0.641646
Ar 2.191833 3.128424 5.268450
Ar 4.232475 5.213835 0.168502
10
Lattice="10.0 0 0 0 10.0 0 0 0 10.0" Properties=species:S:1:pos:R:3 pbc="T T T" Time=506
Ar 5.165951 2.882744 4.259893
Ar 2.414905 3.526017 3.469671
Ar 4.354352 3.860109 1.397618
Ar 5.200957 4.016126 1.108312
Ar 4.630893 1.438507 1.702085
Ar 2.585155 1.036984 1.975196
Ar 4.079479 5.146453 3.197604
Ar 4.179162 2.161053 0.642511
Ar 2.195643 3.133549 5.277035
Ar 4.240837 5.222531 0.168776
10
Lattice="10.0 0 0 0 10.0 0 0 0 10.0" Properties=species:S:1:pos:R:3 pbc="T T T" Time=507
Ar 5.175465 2.886812 4.268212
Ar 2.419136 3.531084 3.476333
Ar 4.361980 3.866088 1.398931
Ar 5.210440 4.023948 1.110345
Ar 4.638415 1.441124 1.703885
Ar 2.588563 1.037221 1.978605
Ar 4.086610 5.155335 3.202511
Ar 4.185461 2.163370 0.643376
Ar 2.199452 3.138674 5.285620
Ar 4.249199 5.231226 0.169051
10
Lattice="10.0 0 0 0 10.0 0 0 0 10.0" Properties=species:S:1:pos:R:3 pbc="T T T" Time=508
Ar 5.184979 2.890880 4.276531
Ar 2.423368 3.536150 3.482994
Ar 4.369608 3.872067 1.400244
Ar 5.219922 4.031771 1.112379
Ar 4.645937 1.443740 1.705684
Ar 2.591971 1.037457 1.982015
Ar 4.093740 5.164216 3.207419
Ar 4.191759 2.165686 0.644241
Ar 2.203261 3.143800 5.294205
Ar 4.257561 5.239922 0.169326
10
Lattice="10.0 0 0 0 10.0 0 0 0 10.0" Properties=species:S:1:pos:R:3 pbc="T T T" Time=509
Ar 5.194493 2.894947 4.284850
Ar 2.427599 3.541217 3.489656
Ar 4.377236 3.878046 1.401557
Ar 5.229404 4.039593 1.114412
Ar 4.653459 1.446357 1.707483
Ar 2.595379 1.037694 1.985425
Ar 4.100871 5.173098 3.212326
Ar 4.198058 2.168003 0.645107
Ar 2.207070 3.148925 5.302790
Ar 4.265923 5.248618 0.169600
10
Lattice="10.0 0 0 0 10.0 0 0 0 10.0" Properties=species:S:1:pos:R:3 pbc="T T T" Time=510
Ar 5.204007 2.899015 4.293169
Ar 2.431830 3.546284 3.496317
Ar 4.384864 3.884025 1.402870
Ar 5.238886 4.047415 1.116445
Ar 4.660981 1.448973 1.709283
Ar 2.598787 1.037930 1.988834
Ar 4.108002 5.181979 3.217233
Ar 4.204356 2.170319 0.645972
Ar 2.210879 3.154050 5.311374
Ar 4.274285 5.257314 0.169875
10
Lattice="10.0 0 0 0 10.0 0 0 0 10.0" Properties=species:S:1:pos:R:3 pbc="T T T" Time=511
Ar 5.213522 2.903082 4.301488
Ar 2.436061 3.551350 3.502979
Ar 4.392492 3.890004 1.404183
Ar 5.248368 4.055237 1.118479
Ar 4.668503 1.451590 1.711082
Ar 2.602195 1.038167 1.992244
Ar 4.115132 5.190860 3.222140
Ar 4.210655 2.172636 0.646837
Ar 2.214688 3.159176 5.319959
Ar 4.282647 5.266010 0.170149
10
Lattice="10.0 0 0 0 10.0 0 0 0 10.0" Properties=species:S:1:pos:R:3 pbc="T T T" Time=512
Ar 5.223036 2.907150 4.309807
Ar 2.440292 3.556417 3.509640
Ar 4.400120 3.895983 1.405496
Ar 5.257851 4.063059 1.120512
Ar 4.676025 1.454207 1.712882
Ar 2.605603 1.038403 1.995653
Ar 4.122263 5.199742 3.227047
Ar 4.216953 2.174952 0.647702
Ar 2.218498 3.164301 5.328544
Ar 4.291009 5.274706 0.170424
10
Lattice="10.0 0 0 0 10.0 0 0 0 10.0" Properties=species:S:1:pos:R:3 pbc="T T T" Time=513
Ar 5.232550 2.911217 4.318126
Ar 2.444523 3.561484 3.516302
Ar 4.407748 3.901962 1.406809
Ar 5.267333 4.070881 1.122545
Ar 4.683547 1.456823 1.714681
Ar 2.609011 1.038640 1.999063
Ar 4.129393 5.208623 3.231954
Ar 4.223252 2.177269 0.648567
Ar 2.222307 3.169426 5.337129
Ar 4.299371 5.283402 0.170699
10
Lattice="10.0 0 0 0 10.0 0 0 0 10.0" Properties=species:S:1:pos:R:3 pbc="T T T" Time=514
Ar 5.242064 2.915285 4.326445
Ar 2.448754 3.566550 3.522964
Ar 4.415376 3.907941 1.408122
Ar 5.276815 4.078703 1.124579
Ar 4.691069 1.459440 1.716481
Ar 2.612419 1.038876 2.002473
Ar 4.136524 5.217504 3.236861
Ar 4.229550 2.179585 0.649433
Ar 2.226116 3.174552 5.345714
Ar 4.307733 5.292098 0.170973
10
Lattice="10.0 0 0 0 10.0 0 0 0 10.0" Properties=species:S:1:pos:R:3 pbc="T T T" Time=515
Ar 5.251578 2.919353 4.334764
Ar 2.452986 3.571617 3.529625
Ar 4.423004 3.913920 1.409435
Ar 5.286297 4.086525 1.126612
Ar 4.698591 1.462056 1.718280
Ar 2.615827 1.039113 2.005882
Ar 4.143655 5.226386 3.241768
Ar 4.235849 2.181902 0.650298
Ar 2.229925 3.179677 5.354299
Ar 4.316095 5.300794 0.171248
10
Lattice="10.0 0 0 0 10.0 0 0 0 10.0" Properties=species:S:1:pos:R:3 pbc="T T T" Time=516
Ar 5.261092 2.923420 4.343083
Ar 2.457217 3.576683 3.536287
Ar 4.430632 3.919899 1.410748
Ar 5.295779 4.094347 1.128645
Ar 4.706114 1.464673 1.720079
Ar 2.619235 1.039349 2.009292
Ar 4.150785 5.235267 3.246675
Ar 4.242147 2.184218 0.651163
Ar 2.233734 3.184802 5.362884
Ar 4.324457 5.309490 0.171523
10
Lattice="10.0 0 0 0 10.0 0 0 0 10.0" Properties=species:S:1:pos:R:3 pbc="T T T" Time=517
Ar 5.270606 2.927488 4.351402
Ar 2.461448 3.581750 3.542948
Ar 4.438260 3.925878 1.412061
Ar 5.305262 4.102169 1.130679
Ar 4.713636 1.467289 1.721879
Ar 2.622644 1.039586 2.012701
Ar 4.157916 5.244149 3.251582
Ar 4.248446 2.186534 0.652028
Ar 2.237544 3.189928 5.371469
Ar 4.332819 5.318186 0.171797
10
Lattice="10.0 0 0 0 10.0 0 0 0 10.0" Properties=species:S:1:pos:R:3 pbc="T T T" Time=518
Ar 5.280120 2.931555 4.359721
Ar 2.465679 3.586817 3.549610
Ar 4.445888 3.931858 1.413374
Ar 5.314744 4.109991 1.132712
Ar 4.721158 1.469906 1.723678
Ar 2.626052 1.039822 2.016111
Ar 4.165047 5.253030 3.256489
Ar 4.254744 2.188851 0.652893
Ar 2.241353 3.195053 5.380054
Ar 4.341181 5.326882 0.172072
10
Lattice="10.0 0 0 0 10.0 0 0 0 10.0" Properties=species:S:1:pos:R:3 pbc="T T T" Time=519
Ar 5.289634 2.935623 4.368040
Ar 2.469910 3.591883 3.556271
Ar 4.453516 3.937837 1.414687
Ar 5.324226 4.117813 1.134746
Ar 4.728680 1.472523 1.725478
Ar 2.629460 1.040059 2.019521
Ar 4.172177 5.261911 3.261396
Ar 4.261043 2.191167 0.653759
Ar 2.245162 3.200178 5.388638
Ar 4.349543 5.335578 0.172346
10
Lattice="10.0 0 0 0 10.0 0 0 0 10.0" Properties=species:S:1:pos:R:3 pbc="T T T" Time=520
Ar 5.299148 2.939691 4.376359
Ar 2.474141 3.596950 3.562933
Ar 4.461144 3.943816 1.416000
Ar 5.333708 4.125635 1.136779
Ar 4.736202 1.475139 1.727277
Ar 2.632868 1.040295 2.022930
Ar 4.179308 5.270793 3.266303
Ar 4.267341 2.193484 0.654624
Ar 2.248971 3.205303 5.397223
Ar 4.357905 5.344274 0.172621
10
Lattice="10.0 0 0 0 10.0 0 0 0 10.0" Properties=species:S:1:pos:R:3 pbc="T T T" Time=521
Ar 5.308662 2.943758 4.384678
Ar 2.478372 3.602017 3.569594
Ar 4.468772 3.949795 1.417313
Ar 5.343190 4.133458 1.138812
Ar 4.743724 1.477756 1.729077
Ar 2.636276 1.040532 2.026340
Ar 4.186438 5.279674 3.271210
Ar 4.273640 2.195800 0.655489
Ar 2.252780 3.210429 5.405808
Ar 4.366267 5.352970 0.172896
10
Lattice="10.0 0 0 0 10.0 0 0 0 10.0" Properties=species:S:1:pos:R:3 pbc="T T T" Time=522
Ar 5.318176 2.947826 4.392997
Ar 2.482603 3.607083 3.576256
Ar 4.476400 3.955774 1.418626
Ar 5.352673 4.141280 1.140846
Ar 4.751246 1.480372 1.730876
Ar 2.639684 1.040768 2.029749
Ar 4.193569 5.288556 3.276117
Ar 4.279938 2.198117 0.656354
Ar 2.256589 3.215554 5.414393
Ar 4.374629 5.361666 0.173170
10
Lattice="10.0 0 0 0 10.0 0 0 0 10.0" Properties=species:S:1:pos:R:3 pbc="T T T" Time=523
Ar 5.327690 2.951893 4.401316
Ar 2.486835 3.612150 3.582917
Ar 4.484028 3.961753 1.419939
Ar 5.362155 4.149102 1.142879
Ar 4.758768 1.482989 1.732675
Ar 2.643092 1.041005 2.033159
Ar 4.200700 5.297437 3.281024
Ar 4.286237 2.200433 0.657219
Ar 2.260399 3.220679 5.422978
Ar 4.382991 5.370362 0.173445
10
Lattice="10.0 0 0 0 10.0 0 0 0 10.0" Properties=species:S:1:pos:R:3 pbc="T T T" Time=524
Ar 5.337204 2.955961 4.409635
Ar 2.491066 3.617217 3.589579
Ar 4.491656 3.967732 1.421252
Ar 5.371637 4.156924 1.144912
Ar 4.766290 1.485605 1.734475
Ar 2.646500 1.041241 2.036569
Ar 4.207830 5.306318 3.285931
Ar 4.292535 2.202750 0.658085
Ar 2.264208 3.225805 5.431563
Ar 4.391353 5.379058 0.173719
10
Lattice="10.0 0 0 0 10.0 0 0 0 10.0" Properties=species:S:1:pos:R:3 pbc="T T T" Time=525
Ar 5.346718 2.960029 4.417954
Ar 2.495297 3.622283 3.596241
Ar 4.499284 3.973711 1.422565
Ar 5.381119 4.164746 1.146946
Ar 4.773812 1.488222 1.736274
Ar 2.649908 1.041477 2.039978
Ar 4.214961 5.315200 3.290838
Ar 4.298834 2.205066 0.658950
Ar 2.268017 3.230930 5.440148
Ar 4.399715 5.387754 0.173994
10
Lattice="10.0 0 0 0 10.0 0 0 0 10.0" Properties=species:S:1:pos:R:3 pbc="T T T" Time=526
Ar 5.356232 2.964096 4.426273
Ar 2.499528 3.627350 3.602902
Ar 4.506912 3.979690 1.423878
Ar 5.390601 4.172568 1.148979
Ar 4.781334 1.490839 1.738074
Ar 2.653316 1.041714 2.043388
Ar 4.222092 5.324081 3.295745
Ar 4.305132 2.207383 0.659815
Ar 2.271826 3.236055 5.448733
Ar 4.408076 5.396450 0.174269
10
Lattice="10.0 0 0 0 10.0 0 0 0 10.0" Properties=species:S:1:pos:R:3 pbc="T T T" Time=527
Ar 5.365746 2.968164 4.434592
Ar 2.503759 3.632417 3.609564
Ar 4.514540 3.985669 1.425191
Ar 5.400084 4.180390 1.151012
Ar 4.788856 1.493455 1.739873
Ar 2.656724 1.041950 2.046797
Ar 4.229222 5.332963 3.300652
Ar 4.311431 2.209699 0.660680
Ar 2.275635 3.241181 5.457318
Ar 4.416438 5.405146 0.174543
10
Lattice="10.0 0 0 0 10.0 0 0 0 10.0" Properties=species:S:1:pos:R:3 pbc="T T T" Time=528
Ar 5.375260 2.972231 4.442911
Ar 2.507990 3.637483 3.616225
Ar 4.522167 3.991648 1.426504
Ar 5.409566 4.188212 1.153046
Ar 4.796379 1.496072 1.741672
Ar 2.660132 1.042187 2.050207
Ar 4.236353 5.341844 3.305559
Ar 4.317729 2.212016 0.661545
Ar 2.279444 3.246306 5.465903
Ar 4.424800 5.413841 0.174818
10
Lattice="10.0 0 0 0 10.0 0 0 0 10.0" Properties=species:S:1:pos:R:3 pbc="T T T" Time=529
Ar 5.384774 2.976299 4.451230
Ar 2.512221 3.642550 3.622887
Ar 4.529795 3.997627 1.427817
Ar 5.419048 4.196034 1.155079
Ar 4.803901 1.498688 1.743472
Ar 2.663541 1.042423 2.053617
Ar 4.243483 5.350725 3.310467
Ar 4.324028 2.214332 0.662411
Ar 2.283254 3.251431 5.474487
Ar 4.433162 5.422537 0.175093
10
Lattice="10.0 0 0 0 10.0 0 0 0 10.0" Properties=species:S:1:pos:R:3 pbc="T T T" Time=530
Ar 5.394288 2.980367 4.459549
Ar 2.516453 3.647616 3.629548
Ar 4.537423 4.003606 1.429130
Ar 5.428530 4.203856 1.157112
Ar 4.811423 1.501305 1.745271
Ar 2.666949 1.042660 2.057026
Ar 4.250614 5.359607 3.315374
Ar 4.330326 2.216649 0.663276
Ar 2.287063 3.256557 5.483072
Ar 4.441524 5.431233 0.175367
10
Lattice="10.0 0 0 0 10.0 0 0 0 10.0" Properties=species:S:1:pos:R:3 pbc="T T T" Time=531
Ar 5.403802 2.984434 4.467868
Ar 2.520684 3.652683 3.636210
Ar 4.545051 4.009586 1.430443
Ar 5.438012 4.211678 1.159146
Ar 4.818945 1.503921 1.747071
Ar 2.670357 1.042896 2.060436
Ar 4.257745 5.368488 3.320281
Ar 4.336625 2.218965 0.664141
Ar 2.290872 3.261682 5.491657
Ar 4.449886 5.439929 0.175642
10
Lattice="10.0 0 0 0 10.0 0 0 0 10.0" Properties=species:S:1:pos:R:3 pbc="T T T" Time=532
Ar 5.413316 2.988502 4.476187
Ar 2.524915 3.657750 3.642871
Ar 4.552679 4.015565 1.431756
Ar 5.447495 4.219500 1.161179
Ar 4.826467 1.506538 1.748870
Ar 2.673765 1.043133 2.063845
Ar 4.264875 5.377370 3.325188
Ar 4.342923 2.221282 0.665006
Ar 2.294681 3.266807 5.500242
Ar 4.458248 5.448625 0.175916
10
Lattice="10.0 0 0 0 10.0 0 0 0 10.0" Properties=species:S:1:pos:R:3 pbc="T T T" Time=533
Ar 5.422831 2.992569 4.484506
Ar 2.529146 3.662816 3.649533
Ar 4.560307 4.021544 1.433069
Ar 5.456977 4.227322 1.163212
Ar 4.833989 1.509154 1.750670
Ar 2.677173 1.043369 2.067255
Ar 4.272006 5.386251 3.330095
Ar 4.349222 2.223598 0.665871
Ar 2.298490 3.271933 5.508827
Ar 4.466610 5.457321 0.176191
10
Lattice="10.0 0 0 0 10.0 0 0 0 10.0" Properties=species:S:1:pos:R:3 pbc="T T T" Time=534
Ar 5.432345 2.996637 4.492825
Ar 2.533377 3.667883 3.656194
Ar 4.567935 4.027523 1.434382
Ar 5.466459 4.235145 1.165246
Ar 4.841511 1.511771 1.752469
Ar 2.680581 1.043606 2.070665
Ar 4.279137 5.395132 3.335002
Ar 4.355520 2.225915 0.666737
Ar 2.302300 3.277058 5.517412
Ar 4.474972 5.466017 0.176466
10
Lattice="10.0 0 0 0 10.0 0 0 0 10.0" Properties=species:S:1:pos:R:3 pbc="T T T" Time=535
Ar 5.441859 3.000705 4.501143
Ar 2.537608 3.672950 3.662856
Ar 4.575563 4.033502 1.435695
Ar 5.475941 4.242967 1.167279
Ar 4.849033 1.514388 1.754268
Ar 2.683989 1.043842 2.074074
Ar 4.286267 5.404014 3.339909
Ar 4.361819 2.228231 0.667602
Ar 2.306109 3.282183 5.525997
Ar 4.483334 5.474713 0.176740
10
Lattice="10.0 0 0 0 10.0 0 0 0 10.0" Properties=species:S:1:pos:R:3 pbc="T T T" Time=536
Ar 5.451373 3.004772 4.509462
Ar 2.541839 3.678016 3.669517
Ar 4.583191 4.039481 1.437008
Ar 5.485423 4.250789 1.169313
Ar 4.856555 1.517004 1.756068
Ar 2.687397 1.044079 2.077484
Ar 4.293398 5.412895 3.344816
Ar 4.368117 2.230548 0.668467
Ar 2.309918 3.287309 5.534582
Ar 4.491696 5.483409 0.177015
10
Lattice="10.0 0 0 0 10.0 0 0 0 10.0" Properties=species:S:1:pos:R:3 pbc="T T T" Time=537
Ar 5.460887 3.008840 4.517781
Ar 2.546070 3.683083 3.676179
Ar 4.590819 4.045460 1.438321
Ar 5.494906 4.258611 1.171346
Ar 4.864077 1.519621 1.757867
Ar 2.690805 1.044315 2.080893
Ar 4.300528 5.421777 3.349723
Ar 4.374416 2.232864 0.669332
Ar 2.313727 3.292434 5.543167
Ar 4.500058 5.492105 0.177289
10
Lattice="10.0 0 0 0 10.0 0 0 0 10.0" Properties=species:S:1:pos:R:3 pbc="T T T" Time=538
Ar 5.470401 3.012907 4.526100
Ar 2.550302 3.688150 3.682841
Ar 4.598447 4.051439 1.439634
Ar 5.504388 4.266433 1.173379
Ar 4.871599 1.522237 1.759667
Ar 2.694213 1.044552 2.084303
Ar 4.307659 5.430658 3.354630
Ar 4.380714 2.235181 0.670197
Ar 2.317536 3.297559 5.551751
Ar 4.508420 5.500801 0.177564
10
Lattice="10.0 0 0 0 10.0 0 0 0 10.0" Properties=species:S:1:pos:R:3 pbc="T T T" Time=539
Ar 5.479915 3.016975 4.534419
Ar 2.554533 3.693216 3.689502
Ar 4.606075 4.057418 1.440947
Ar 5.513870 4.274255 1.175413
Ar 4.879121 1.524854 1.761466
Ar 2.697621 1.044788 2.087713
Ar 4.314790 5.439539 3.359537
Ar 4.387013 2.237497 0.671063
Ar 2.321345 3.302685 5.560336
Ar 4.516782 5.509497 0.177839
10
Lattice="10.0 0 0 0 10.0 0 0 0 10.0" Properties=species:S:1:pos:R:3 pbc="T T T" Time=540
Ar 5.489429 3.021042 4.542738
Ar 2.558764 3.698283 3.696164
Ar 4.613703 4.063397 1.442260
Ar 5.523352 4.282077 1.177446
Ar 4.886644 1.527470 1.763266
Ar 2.701029 1.045025 2.091122
Ar 4.321920 5.448421 3.364444
Ar 4.393311 2.239814 0.671928
Ar 2.325155 3.307810 5.568921
Ar 4.525144 5.518193 0.178113
10
Lattice="10.0 0 0 0 10.0 0 0 0 10.0" Properties=species:S:1:pos:R:3 pbc="T T T" Time=541
Ar 5.498943 3.025110 4.551057
Ar 2.562995 3.703350 3.702825
Ar 4.621331 4.069376 1.443573
Ar 5.532834 4.289899 1.179479
Ar 4.894166 1.530087 1.765065
Ar 2.704438 1.045261 2.094532
Ar 4.329051 5.457302 3.369351
Ar 4.399610 2.242130 0.672793
Ar 2.328964 3.312935 5.577506
Ar 4.533506 5.526889 0.178388
10
Lattice="10.0 0 0 0 10.0 0 0 0 10.0" Properties=species:S:1:pos:R:3 pbc="T T T" Time=542
Ar 5.508457 3.029178 4.559376
Ar 2.567226 3.708416 3.709487
Ar 4.628959 4.075355 1.444886
Ar 5.542317 4.297721 1.181513
Ar 4.901688 1.532704 1.766864
Ar 2.707846 1.045498 2.097941
Ar 4.336182 5.466183 3.374258
Ar 4.405908 2.244447 0.673658
Ar 2.332773 3.318061 5.586091
Ar 4.541868 5.535585 0.178663
10
Lattice="10.0 0 0 0 10.0 0 0 0 10.0" Properties=species:S:1:pos:R:3 pbc="T T T" Time=543
Ar 5.517971 3.033245 4.567695
Ar 2.571457 3.713483 3.716148
Ar 4.636587 4.081334 1.446199
Ar 5.551799 4.305543 1.183546
Ar 4.909210 1.535320 1.768664
Ar 2.711254 1.045734 2.101351
Ar 4.343312 5.475065 3.379165
Ar 4.412207 2.246763 0.674523
Ar 2.336582 3.323186 5.594676
Ar 4.550230 5.544281 0.178937
10
Lattice="10.0 0 0 0 10.0 0 0 0 10.0" Properties=species:S:1:pos:R:3 pbc="T T T" Time=544
Ar 5.527485 3.037313 4.576014
Ar 2.575688 3.718549 3.722810
Ar 4.644215 4.087314 1.447512
Ar 5.561281 4.313365 1.185579
Ar 4.916732 1.537937 1.770463
Ar 2.714662 1.045970 2.104761
Ar 4.350443 5.483946 3.384072
Ar 4.418505 2.249080 0.675389
Ar 2.340391 3.328311 5.603261
Ar 4.558592 5.552977 0.179212
10
Lattice="10.0 0 0 0 10.0 0 0 0 10.0" Properties=species:S:1:pos:R:3 pbc="T T T" Time=545
Ar 5.536999 3.041380 4.584333
Ar 2.579920 3.723616 3.729471
Ar 4.651843 4.093293 1.448825
Ar 5.570763 4.321187 1.187613
Ar 4.924254 1.540553 1.772263
Ar 2.718070 1.046207 2.108170
Ar 4.357574 5.492828 3.388979
Ar 4.424804 2.251396 0.676254
Ar 2.344201 3.333436 5.611846
Ar 4.566954 5.561673 0.179486
10
Lattice="10.0 0 0 0 10.0 0 0 0 10.0" Properties=species:S:1:pos:R:3 pbc="T T T" Time=546
Ar 5.546513 3.045448 4.592652
Ar 2.584151 3.728683 3.736133
Ar 4.659471 4.099272 1.450138
Ar 5.580245 4.329009 1.189646
Ar 4.931776 1.543170 1.774062
Ar 2.721478 1.046443 2.111580
Ar 4.364704 5.501709 3.393886
Ar 4.431102 2.253713 0.677119
Ar 2.348010 3.338562 5.620431
Ar 4.575316 5.570369 0.179761
10
Lattice="10.0 0 0 0 10.0 0 0 0 10.0" Properties=species:S:1:pos:R:3 pbc="T T T" Time=547
Ar 5.556027 3.049516 4.600971
Ar 2.588382 3.733749 3.742794
Ar 4.667099 4.105251 1.451451
Ar 5.589728 4.336832 1.191679
Ar 4.939298 1.545786 1.775862
Ar 2.724886 1.046680 2.114989
Ar 4.371835 5.510590 3.398793
Ar 4.437401 2.256029 0.677984
Ar 2.351819 3.343687 5.629016
Ar 4.583678 5.579065 0.180036
10
Lattice="10.0 0 0 0 10.0 0 0 0 10.0" Properties=species:S:1:pos:R:3 pbc="T T T" Time=548
Ar 5.565541 3.053583 4.609290
Ar 2.592613 3.738816 3.749456
Ar 4.674727 4.111230 1.452764
Ar 5.599210 4.344654 1.193713
Ar 4.946820 1.548403 1.777661
Ar 2.728294 1.046916 2.118399
Ar 4.378965 5.519472 3.403700
Ar 4.443699 2.258346 0.678849
Ar 2.355628 3.348812 5.637600
Ar 4.592040 5.587761 0.180310
10
Lattice="10.0 0 0 0 10.0 0 0 0 10.0" Properties=species:S:1:pos:R:3 pbc="T T T" Time=549
Ar 5.575055 3.057651 4.617609
Ar 2.596844 3.743883 3.756118
Ar 4.682355 4.117209 1.454077
Ar 5.608692 4.352476 1.195746
Ar 4.954342 1.551020 1.779460
Ar 2.731702 1.047153 2.121809
Ar 4.386096 5.528353 3.408607
Ar 4.449998 2.260662 0.679715
Ar 2.359437 3.353938 5.646185
Ar 4.600402 5.596457 0.180585
10
Lattice="10.0 0 0 0 10.0 0 0 0 10.0" Properties=species:S:1:pos:R:3 pbc="T T T" Time=550
Ar 5.584569 3.061718 4.625928
Ar 2.601075 3.748949 3.762779
Ar 4.689983 4.123188 1.455390
Ar 5.618174 4.360298 1.197779
Ar 4.961864 1.553636 1.781260
Ar 2.735110 1.047389 2.125218
Ar 4.393227 5.537235 3.413515
Ar 4.456296 2.262979 0.680580
Ar 2.363246 3.359063 5.654770
Ar 4.608764 5.605152 0.180859
10
Lattice="10.0 0 0 0 10.0 0 0 0 10.0" Properties=species:S:1:pos:R:3 pbc="T T T" Time=551
Ar 5.594083 3.065786 4.634247
Ar 2.605306 3.754016 3.769441
Ar 4.697611 4.129167 1.456703
Ar 5.627657 4.368120 1.199813
Ar 4.969387 1.556253 1.783059
Ar 2.738518 1.047626 2.128628
Ar 4.400357 5.546116 3.418422
Ar 4.462595 2.265295 0.681445
Ar 2.367056 3.364188 5.663355
Ar 4.617126 5.613848 0.181134
10
Lattice="10.0 0 0 0 10.0 0 0 0 10.0" Properties=species:S:1:pos:R:3 pbc="T T T" Time=552
Ar 5.603597 3.069854 4.642566
Ar 2.609538 3.759083 3.776102
Ar 4.705239 4.135146 1.458016
Ar 5.637139 4.375942 1.201846
Ar 4.976909 1.558869 1.784859
Ar 2.741926 1.047862 2.132037
Ar 4.407488 5.554997 3.423329
Ar 4.468893 2.267612 0.682310
Ar 2.370865 3.369314 5.671940
Ar 4.625488 5.622544 0.181409
10
Lattice="10.0 0 0 0 10.0 0 0 0 10.0" Properties=species:S:1:pos:R:3 pbc="T T T" Time=553
Ar 5.613111 3.073921 4.650885
Ar 2.613769 3.764149 3.782764
Ar 4.712867 4.141125 1.459329
Ar 5.646621 4.383764 1.203880
Ar 4.984431 1.561486 1.786658
Ar 2.745335 1.048099 2.135447
Ar 4.414619 5.563879 3.428236
Ar 4.475192 2.269928 0.683175
Ar 2.374674 3.374439 5.680525
Ar 4.633849 5.631240 0.181683
10
Lattice="10.0 0 0 0 10.0 0 0 0 10.0" Properties=species:S:1:pos:R:3 pbc="T T T" Time=554
Ar 5.622625 3.077989 4.659204
Ar 2.618000 3.769216 3.789425
Ar 4.720495 4.147104 1.460642
Ar 5.656103 4.391586 1.205913
Ar 4.991953 1.564102 1.788458
Ar 2.748743 1.048335 2.138857
Ar 4.421749 5.572760 3.433143
Ar 4.481490 2.272245 0.684041
Ar 2.378483 3.379564 5.689110
Ar 4.642211 5.639936 0.181958
10
Lattice="10.0 0 0 0 10.0 0 0 0 10.0" Properties=species:S:1:pos:R:3 pbc="T T T" Time=555
Ar 5.632139 3.082056 4.667523
Ar 2.622231 3.774283 3.796087
Ar 4.728123 4.153083 1.461955
Ar 5.665585 4.399408 1.207946
Ar 4.999475 1.566719 1.790257
Ar 2.752151 1.048572 2.142266
Ar 4.428880 5.581642 3.438050
Ar 4.487789 2.274561 0.684906
Ar 2.382292 3.384690 5.697695
Ar 4.650573 5.648632 0.182233
10
Lattice="10.0 0 0 0 10.0 0 0 0 10.0" Properties=species:S:1:pos:R:3 pbc="T T T" Time=556
Ar 5.641654 3.086124 4.675842
Ar 2.626462 3.779349 3.802748
Ar 4.735751 4.159062 1.463268
Ar 5.675068 4.407230 1.209980
Ar 5.006997 1.569336 1.792056
Ar 2.755559 1.048808 2.145676
Ar 4.436010 5.590523 3.442957
Ar 4.494087 2.276878 0.685771
Ar 2.386101 3.389815 5.706280
Ar 4.658935 5.657328 0.182507
10
Lattice="10.0 0 0 0 10.0 0 0 0 10.0" Properties=species:S:1:pos:R:3 pbc="T T T" Time=557
Ar 5.651168 3.090192 4.684161
Ar 2.630693 3.784416 3.809410
Ar 4.743379 4.165042 1.464581
Ar 5.684550 4.415052 1.212013
Ar 5.014519 1.571952 1.793856
Ar 2.758967 1.049045 2.149085
Ar 4.443141 5.599404 3.447864
Ar 4.500386 2.279194 0.686636
Ar 2.389911 3.394940 5.714864
Ar 4.667297 5.666024 0.182782
10
Lattice="10.0 0 0 0 10.0 0 0 0 10.0" Properties=species:S:1:pos:R:3 pbc="T T T" Time=558
Ar 5.660682 3.094259 4.692480
Ar 2.634924 3.789482 3.816071
Ar 4.751007 4.171021 1.465894
Ar 5.694032 4.422874 1.214046
Ar 5.022041 1.574569 1.795655
Ar 2.762375 1.049281 2.152495
Ar 4.450272 5.608286 3.452771
Ar 4.506684 2.281511 0.687502
Ar 2.393720 3.400066 5.723449
Ar 4.675659 5.674720 0.183056
10
Lattice="10.0 0 0 0 10.0 0 0 0 10.0" Properties=species:S:1:pos:R:3 pbc="T T T" Time=559
Ar 5.670196 3.098327 4.700799
Ar 2.639155 3.794549 3.822733
Ar 4.758635 4.177000 1.467207
Ar 5.703514 4.430696 1.216080
Ar 5.029563 1.577185 1.797455
Ar 2.765783 1.049518 2.155905
Ar 4.457402 5.617167 3.457678
Ar 4.512983 2.283827 0.688367
Ar 2.397529 3.405191 5.732034
Ar 4.684021 5.683416 0.183331
10
Lattice="10.0 0 0 0 10.0 0 0 0 10.0" Properties=species:S:1:pos:R:3 pbc="T T T" Time=560
Ar 5.679710 3.102394 4.709118
Ar 2.643387 3.799616 3.829394
Ar 4.766263 4.182979 1.468520
Ar 5.712996 4.438519 1.218113
Ar 5.037085 1.579802 1.799254
Ar 2.769191 1.049754 2.159314
Ar 4.464533 5.626049 3.462585
Ar 4.519281 2.286143 0.689232
Ar 2.401338 3.410316 5.740619
Ar 4.692383 5.692112 0.183606
10
Lattice="10.0 0 0 0 10.0 0 0 0 10.0" Properties=species:S:1:pos:R:3 pbc="T T T" Time=561
Ar 5.689224 3.106462 4.717437
Ar 2.647618 3.804682 3.836056
Ar 4.773891 4.188958 1.469833
Ar 5.722479 4.446341 1.220146
Ar 5.044607 1.582418 1.801053
Ar 2.772599 1.049991 2.162724
Ar 4.471664 5.634930 3.467492
Ar 4.525580 2.288460 0.690097
Ar 2.405147 3.415442 5.749204
Ar 4.700745 5.700808 0.183880
10
Lattice="10.0 0 0 0 10.0 0 0 0 10.0" Properties=species:S:1:pos:R:3 pbc="T T T" Time=562
Ar 5.698738 3.110530 4.725756
Ar 2.651849 3.809749 3.842718
Ar 4.781519 4.194937 1.471146
Ar 5.731961 4.454163 1.222180
Ar 5.052129 1.585035 1.802853
Ar 2.776007 1.050227 2.166133
Ar 4.478794 5.643811 3.472399
Ar 4.531878 2.290776 0.690962
Ar 2.408957 3.420567 5.757789
Ar 4.709107 5.709504 0.184155
10
Lattice="10.0 0 0 0 10.0 0 0 0 10.0" Properties=species:S:1:pos:R:3 pbc="T T T" Time=563
Ar 5.708252 3.114597 4.734075
Ar 2.656080 3.814816 3.849379
Ar 4.789147 4.200916 1.472459
Ar 5.741443 4.461985 1.224213
Ar 5.059652 1.587652 1.804652
Ar 2.779415 1.050463 2.169543
Ar 4.485925 5.652693 3.477306
Ar 4.538177 2.293093 0.691828
Ar 2.412766 3.425692 5.766374
Ar 4.717469 5.718200 0.184430
10
Lattice="10.0 0 0 0 10.0 0 0 0 10.0" Properties=species:S:1:pos:R:3 pbc="T T T" Time=564
Ar 5.717766 3.118665 4.742394
Ar 2.660311 3.819882 3.856041
Ar 4.796775 4.206895 1.473772
Ar 5.750925 4.469807 1.226246
Ar 5.067174 1.590268 1.806452
Ar 2.782823 1.050700 2.172953
Ar 4.493055 5.661574 3.482213
Ar 4.544475 2.295409 0.692693
Ar 2.416575 3.430818 5.774959
Ar 4.725831 5.726896 0.184704
10
Lattice="10.0 0 0 0 10.0 0 0 0 10.0" Properties=species:S:1:pos:R:3 pbc="T T T" Time=565
Ar 5.727280 3.122732 4.750713
Ar 2.664542 3.824949 3.862702
Ar 4.804403 4.212874 1.475085
Ar 5.760407 4.477629 1.228280
Ar 5.074696 1.592885 1.808251
Ar 2.786232 1.050936 2.176362
Ar 4.500186 5.670455 3.487120
Ar 4.550774 2.297726 0.693558
Ar 2.420384 3.435943 5.783544
Ar 4.734193 5.735592 0.184979
10
Lattice="10.0 0 0 0 10.0 0 0 0 10.0" Properties=species:S:1:pos:R:3 pbc="T T T" Time=566
Ar 5.736794 3.126800 4.759032
Ar 2.668773 3.830016 3.869364
Ar 4.812031 4.218853 1.476398
Ar 5.769890 4.485451 1.230313
Ar 5.082218 1.595501 1.810051
Ar 2.789640 1.051173 2.179772
Ar 4.507317 5.679337 3.492027
Ar 4.557072 2.300042 0.694423
Ar 2.424193 3.441068 5.792129
Ar 4.742555 5.744288 0.185253
10
Lattice="10.0 0 0 0 10.0 0 0 0 10.0" Properties=species:S:1:pos:R:3 pbc="T T T" Time=567
Ar 5.746308 3.130867 4.767351
Ar 2.673005 3.835082 3.876025
Ar 4.819659 4.224832 1.477711
Ar 5.779372 4.493273 1.232346
Ar 5.089740 1.598118 1.811850
Ar 2.793048 1.051409 2.183181
Ar 4.514447 5.688218 3.496934
Ar 4.563371 2.302359 0.695288
Ar 2.428002 3.446194 5.800713
Ar 4.750917 5.752984 0.185528
10
Lattice="10.0 0 0 0 10.0 0 0 0 10.0" Properties=species:S:1:pos:R:3 pbc="T T T" Time=568
Ar 5.755822 3.134935 4.775670
Ar 2.677236 3.840149 3.882687
Ar 4.827287 4.230811 1.479024
Ar 5.788854 4.501095 1.234380
Ar 5.097262 1.600734 1.813649
Ar 2.796456 1.051646 2.186591
Ar 4.521578 5.697100 3.501841
Ar 4.569669 2.304675 0.696154
Ar 2.431812 3.451319 5.809298
Ar 4.759279 5.761680 0.185803
10
Lattice="10.0 0 0 0 10.0 0 0 0 10.0" Properties=species:S:1:pos:R:3 pbc="T T T" Time=569
Ar 5.765336 3.139003 4.783989
Ar 2.681467 3.845215 3.889348
Ar 4.834915 4.236790 1.480337
Ar 5.798336 4.508917 1.236413
Ar 5.104784 1.603351 1.815449
Ar 2.799864 1.051882 2.190001
Ar 4.528709 5.705981 3.506748
Ar 4.575968 2.306992 0.697019
Ar 2.435621 3.456444 5.817883
Ar 4.767641 5.770376 0.186077
10
Lattice="10.0 0 0 0 10.0 0 0 0 10.0" Properties=species:S:1:pos:R:3 pbc="T T T" Time=570
Ar 5.774850 3.143070 4.792308
Ar 2.685698 3.850282 3.896010
Ar 4.842543 4.242770 1.481650
Ar 5.807818 4.516739 1.238446
Ar 5.112306 1.605968 1.817248
Ar 2.803272 1.052119 2.193410
Ar 4.535839 5.714862 3.511655
Ar 4.582266 2.309308 0.697884
Ar 2.439430 3.461570 5.826468
Ar 4.776003 5.779072 0.186352
10
Lattice="10.0 0 0 0 10.0 0 0 0 10.0" Properties=species:S:1:pos:R:3 pbc="T T T" Time=571
Ar 5.784364 3.147138 4.800627
Ar 2.689929 3.855349 3.902671
Ar 4.850171 4.248749 1.482963
Ar 5.817301 4.524561 1.240480
Ar 5.119828 1.608584 1.819048
Ar 2.806680 1.052355 2.196820
Ar 4.542970 5.723744 3.516563
Ar 4.588565 2.311625 0.698749
Ar 2.443239 3.466695 5.835053
Ar 4.784365 5.787767 0.186626
10
Lattice="10.0 0 0 0 10.0 0 0 0 10.0" Properties=species:S:1:pos:R:3 pbc="T T T" Time=572
Ar 5.793878 3.151205 4.808946
Ar 2.694160 3.860415 3.909333
Ar 4.857799 4.254728 1.484276
Ar 5.826783 4.532383 1.242513
Ar 5.127350 1.611201 1.820847
Ar 2.810088 1.052592 2.200229
Ar 4.550100 5.732625 3.521470
Ar 4.594863 2.313941 0.699614
Ar 2.447048 3.471820 5.843638
Ar 4.792727 5.796463 0.186901
10
Lattice="10.0 0 0 0 10.0 0 0 0 10.0" Properties=species:S:1:pos:R:3 pbc="T T T" Time=573
Ar 5.803392 3.155273 4.817265
Ar 2.698391 3.865482 3.915995
Ar 4.865427 4.260707 1.485589
Ar 5.836265 4.540206 1.244547
Ar 5.134872 1.613817 1.822647
Ar 2.813496 1.052828 2.203639
Ar 4.557231 5.741507 3.526377
Ar 4.601162 2.316258 0.700480
Ar 2.450857 3.476945 5.852223
Ar 4.801089 5.805159 0.187176
10
Lattice="10.0 0 0 0 10.0 0 0 0 10.0" Properties=species:S:1:pos:R:3 pbc="T T T" Time=574
Ar 5.812906 3.159341 4.825584
Ar 2.702622 3.870549 3.922656
Ar 4.873055 4.266686 1.486902
Ar 5.845747 4.548028 1.246580
Ar 5.142394 1.616434 1.824446
Ar 2.816904 1.053065 2.207049
Ar 4.564362 5.750388 3.531284
Ar 4.607460 2.318574 0.701345
Ar 2.454667 3.482071 5.860808
Ar 4.809451 5.813855 0.187450
10
Lattice="10.0 0 0 0 10.0 0 0 0 10.0" Properties=species:S:1:pos:R:3 pbc="T T T" Time=575
Ar 5.822420 3.163408 4.833903
Ar 2.706854 3.875615 3.929318
Ar 4.880683 4.272665 1.488215
Ar 5.855229 4.555850 1.248613
Ar 5.149917 1.619050 1.826245
Ar 2.820312 1.053301 2.210458
Ar 4.571492 5.759269 3.536191
Ar 4.613759 2.320891 0.702210
Ar 2.458476 3.487196 5.869393
Ar 4.817813 5.822551 0.187725
10
Lattice="10.0 0 0 0 10.0 0 0 0 10.0" Properties=species:S:1:pos:R:3 pbc="T T T" Time=576
Ar 5.831934 3.167476 4.842222
Ar 2.711085 3.880682 3.935979
Ar 4.888311 4.278644 1.489528
Ar 5.864712 4.563672 1.250647
Ar 5.157439 1.621667 1.828045
Ar 2.823721 1.053538 2.213868
Ar 4.578623 5.768151 3.541098
Ar 4.620057 2.323207 0.703075
Ar 2.462285 3.492321 5.877977
Ar 4.826175 5.831247 0.188000
10
Lattice="10.0 0 0 0 10.0 0 0 0 10.0" Properties=species:S:1:pos:R:3 pbc="T T T" Time=577
Ar 5.841448 3.171543 4.850541
Ar 2.715316 3.885749 3.942641
Ar 4.895939 4.284623 1.490841
Ar 5.874194 4.571494 1.252680
Ar 5.164961 1.624284 1.829844
Ar 2.827129 1.053774 2.217277
Ar 4.585754 5.777032 3.546005
Ar 4.626356 2.325524 0.703940
Ar 2.466094 3.497447 5.886562
Ar 4.834537 5.839943 0.188274
10
Lattice="10.0 0 0 0 10.0 0 0 0 10.0" Properties=species:S:1:pos:R:3 pbc="T T T" Time=578
Ar 5.850963 3.175611 4.858860
Ar 2.719547 3.890815 3.949302
Ar 4.903567 4.290602 1.492154
Ar 5.883676 4.579316 1.254713
Ar 5.172483 1.626900 1.831644
Ar 2.830537 1.054011 2.220687
Ar 4.592884 5.785914 3.550912
Ar 4.632654 2.327840 0.704806
Ar 2.469903 3.502572 5.895147
Ar 4.842899 5.848639 0.188549
10
Lattice="10.0 0 0 0 10.0 0 0 0 10.0" Properties=species:S:1:pos:R:3 pbc="T T T" Time=579
Ar 5.860477 3.179679 4.867179
Ar 2.723778 3.895882 3.955964
Ar 4.911195 4.296581 1.493467
Ar 5.893158 4.587138 1.256747
Ar 5.180005 1.629517 1.833443
Ar 2.833945 1.054247 2.224097
Ar 4.600015 5.794795 3.555819
Ar 4.638953 2.330157 0.705671
Ar 2.473713 3.507697 5.903732
Ar 4.851260 5.857335 0.188823
10
Lattice="10.0 0 0 0 10.0 0 0 0 10.0" Properties=species:S:1:pos:R:3 pbc="T T T" Time=580
Ar 5.869991 3.183746 4.875498
Ar 2.728009 3.900949 3.962625
Ar 4.918823 4.302560 1.494780
Ar 5.902640 4.594960 1.258780
Ar 5.187527 1.632133 1.835243
Ar 2.837353 1.054484 2.227506
Ar 4.607146 5.803676 3.560726
Ar 4.645251 2.332473 0.706536
Ar 2.477522 3.512823 5.912317
Ar 4.859622 5.866031 0.189098
10
Lattice="10.0 0 0 0 10.0 0 0 0 10.0" Properties=species:S:1:pos:R:3 pbc="T T T" Time=581
Ar 5.879505 3.187814 4.883817
Ar 2.732240 3.906015 3.969287
Ar 4.926451 4.308539 1.496093
Ar 5.912123 4.602782 1.260813
Ar 5.195049 1.634750 1.837042
Ar 2.840761 1.054720 2.230916
Ar 4.614276 5.812558 3.565633
Ar 4.651550 2.334790 0.707401
Ar 2.481331 3.517948 5.920902
Ar 4.867984 5.874727 0.189373
10
Lattice="10.0 0 0 0 10.0 0 0 0 10.0" Properties=species:S:1:pos:R:3 pbc="T T T" Time=582
Ar 5.889019 3.191881 4.892136
Ar 2.736472 3.911082 3.975948
Ar 4.934079 4.314518 1.497406
Ar 5.921605 4.610604 1.262847
Ar 5.202571 1.637366 1.838841
Ar 2.844169 1.054956 2.234325
Ar 4.621407 5.821439 3.570540
Ar 4.657848 2.337106 0.708266
Ar 2.485140 3.523073 5.929487
Ar 4.876346 5.883423 0.189647
10
Lattice="10.0 0 0 0 10.0 0 0 0 10.0" Properties=species:S:1:pos:R:3 pbc="T T T" Time=583
Ar 5.898533 3.195949 4.900455
Ar 2.740703 3.916148 3.982610
Ar 4.941707 4.320498 1.498719
Ar 5.931087 4.618426 1.264880
Ar 5.210093 1.639983 1.840641
Ar 2.847577 1.055193 2.237735
Ar 4.628537 5.830321 3.575447
Ar 4.664147 2.339423 0.709132
Ar 2.488949 3.528199 5.938072
Ar 4.884708 5.892119 0.189922
10
Lattice="10.0 0 0 0 10.0 0 0 0 10.0" Properties=species:S:1:pos:R:3 pbc="T T T" Time=584
Ar 5.908047 3.200017 4.908774
Ar 2.744934 3.921215 3.989271
Ar 4.949335 4.326477 1.500032
Ar 5.940569 4.626248 1.266913
Ar 5.217615 1.642600 1.842440
Ar 2.850985 1.055429 2.241145
Ar 4.635668 5.839202 3.580354
Ar 4.670445 2.341739 0.709997
Ar 2.492758 3.533324 5.946657
Ar 4.893070 5.900815 0.190196
10
Lattice="10.0 0 0 0 10.0 0 0 0 10.0" Properties=species:S:1:pos:R:3 pbc="T T T" Time=585
Ar 5.917561 3.204084 4.917093
Ar 2.749165 3.926282 3.995933
Ar 4.956963 4.332456 1.501345
Ar 5.950051 4.634070 1.268947
Ar 5.225137 1.645216 1.844240
Ar 2.854393 1.055666 2.244554
Ar 4.642799 5.848083 3.585261
Ar 4.676744 2.344056 0.710862
Ar 2.496568 3.538449 5.955242
Ar 4.901432 5.909511 0.190471
10
Lattice="10.0 0 0 0 10.0 0 0 0 10.0" Properties=species:S:1:pos:R:3 pbc="T T T" Time=586
Ar 5.927075 3.208152 4.925412
Ar 2.753396 3.931348 4.002595
Ar 4.964591 4.338435 1.502658
Ar 5.959534 4.641893 1.270980
Ar 5.232660 1.647833 1.846039
Ar 2.857801 1.055902 2.247964
Ar 4.649929 5.856965 3.590168
Ar 4.683042 2.346372 0.711727
Ar 2.500377 3.543575 5.963826
Ar 4.909794 5.918207 0.190746
10
Lattice="10.0 0 0 0 10.0 0 0 0 10.0" Properties=species:S:1:pos:R:3 pbc="T T T" Time=587
Ar 5.936589 3.212219 4.933731
Ar 2.757627 3.936415 4.009256
Ar 4.972219 4.344414 1.503971
Ar 5.969016 4.649715 1.273013
Ar 5.240182 1.650449 1.847839
Ar 2.861209 1.056139 2.251373
Ar 4.657060 5.865846 3.595075
Ar 4.689341 2.348689 0.712592
Ar 2.504186 3.548700 5.972411
Ar 4.918156 5.926903 0.191020
10
Lattice="10.0 0 0 0 10.0 0 0 0 10.0" Properties=species:S:1:pos:R:3 pbc="T T T" Time=588
Ar 5.946103 3.216287 4.942050
Ar 2.761858 3.941482 4.015918
Ar 4.979847 4.350393 1.505284
Ar 5.978498 4.657537 1.275047
Ar 5.247704 1.653066 1.849638
Ar 2.864618 1.056375 2.254783
Ar 4.664191 5.874728 3.599982
Ar 4.695639 2.351005 0.713458
Ar 2.507995 3.553825 5.980996
Ar 4.926518 5.935599 0.191295
10
Lattice="10.0 0 0 0 10.0 0 0 0 10.0" Properties=species:S:1:pos:R:3 pbc="T T T" Time=589
Ar 5.955617 3.220355 4.950369
Ar 2.766090 3.946548 4.022579
Ar 4.987474 4.356372 1.506597
Ar 5.987980 4.665359 1.277080
Ar 5.255226 1.655682 1.851437
Ar 2.868026 1.056612 2.258193
Ar 4.671321 5.883609 3.604889
Ar 4.701938 2.353322 0.714323
Ar 2.511804 3.558951 5.989581
Ar 4.934880 5.944295 0.191570
10
Lattice="10.0 0 0 0 10.0 0 0 0 10.0" Properties=species:S:1:pos:R:3 pbc="T T T" Time=590
Ar 5.965131 3.224422 4.958688
Ar 2.770321 3.951615 4.029241
Ar 4.995102 4.362351 1.507910
Ar 5.997462 4.673181 1.279114
Ar 5.262748 1.658299 1.853237
Ar 2.871434 1.056848 2.261602
Ar 4.678452 5.892490 3.609796
Ar 4.708236 2.355638 0.715188
Ar 2.515613 3.564076 5.998166
Ar 4.943242 5.952991 0.191844
10
Lattice="10.0 0 0 0 10.0 0 0 0 10.0" Properties=species:S:1:pos:R:3 pbc="T T T" Time=591
Ar 5.974645 3.228490 4.967007
Ar 2.774552 3.956682 4.035902
Ar 5.002730 4.368330 1.509223
Ar 6.006945 4.681003 1.281147
Ar 5.270270 1.660916 1.855036
Ar 2.874842 1.057085 2.265012
Ar 4.685582 5.901372 3.614704
Ar 4.714535 2.357955 0.716053
Ar 2.519423 3.569201 6.006751
Ar 4.951604 5.961687 0.192119
10
Lattice="10.0 0 0 0 10.0 0 0 0 10.0" Properties=species:S:1:pos:R:3 pbc="T T T" Time=592
Ar 5.984159 3.232557 4.975326
Ar 2.778783 3.961748 4.042564
Ar 5.010358 4.374309 1.510536
Ar 6.016427 4.688825 1.283180
Ar 5.277792 1.663532 1.856836
Ar 2.878250 1.057321 2.268421
Ar 4.692713 5.910253 3.619611
Ar 4.720833 2.360271 0.716918
Ar 2.523232 3.574327 6.015336
Ar 4.959966 5.970383 0.192393
10
Lattice="10.0 0 0 0 10.0 0 0 0 10.0" Properties=species:S:1:pos:R:3 pbc="T T T" Time=593
Ar 5.993673 3.236625 4.983645
Ar 2.783014 3.966815 4.049225
Ar 5.017986 4.380288 1.511849
Ar 6.025909 4.696647 1.285214
Ar 5.285314 1.666149 1.858635
Ar 2.881658 1.057558 2.271831
Ar 4.699844 5.919134 3.624518
Ar 4.727132 2.362588 0.717784
Ar 2.527041 3.579452 6.023921
Ar 4.968328 5.979078 0.192668
10
Lattice="10.0 0 0 0 10.0 0 0 0 10.0" Properties=species:S:1:pos:R:3 pbc="T T T" Time=594
Ar 6.003187 3.240692 4.991964
Ar 2.787245 3.971882 4.055887
Ar 5.025614 4.386267 1.513162
Ar 6.035391 4.704469 1.287247
Ar 5.292836 1.668765 1.860435
Ar 2.885066 1.057794 2.275241
Ar 4.706974 5.928016 3.629425
Ar 4.733430 2.364904 0.718649
Ar 2.530850 3.584577 6.032506
Ar 4.976690 5.987774 0.192943
10
Lattice="10.0 0 0 0 10.0 0 0 0 10.0" Properties=species:S:1:pos:R:3 pbc="T T T" Time=595
Ar 6.012701 3.244760 5.000283
Ar 2.791476 3.976948 4.062548
Ar 5.033242 4.392246 1.514475
Ar 6.044873 4.712291 1.289280
Ar 5.300358 1.671382 1.862234
Ar 2.888474 1.058031 2.278650
Ar 4.714105 5.936897 3.634332
Ar 4.739729 2.367221 0.719514
Ar 2.534659 3.589703 6.041091
Ar 4.985052 5.996470 0.193217
10
Lattice="10.0 0 0 0 10.0 0 0 0 10.0" Properties=species:S:1:pos:R:3 pbc="T T T" Time=596
Ar 6.022215 3.248828 5.008602
Ar 2.795707 3.982015 4.069210
Ar 5.040870 4.398226 1.515788
Ar 6.054356 4.720113 1.291314
Ar 5.307880 1.673998 1.864033
Ar 2.891882 1.058267 2.282060
Ar 4.721236 5.945779 3.639239
Ar 4.746027 2.369537 0.720379
Ar 2.538469 3.594828 6.049675
Ar 4.993414 6.005166 0.193492
10
Lattice="10.0 0 0 0 10.0 0 0 0 10.0" Properties=species:S:1:pos:R:3 pbc="T T T" Time=597
Ar 6.031729 3.252895 5.016921
Ar 2.799939 3.987081 4.075872
Ar 5.048498 4.404205 1.517101
Ar 6.063838 4.727935 1.293347
Ar 5.315402 1.676615 1.865833
Ar 2.895290 1.058504 2.285469
Ar 4.728366 5.954660 3.644146
Ar 4.752326 2.371854 0.721244
Ar 2.542278 3.599953 6.058260
Ar 5.001776 6.013862 0.193767
10
Lattice="10.0 0 0 0 10.0 0 0 0 10.0" Properties=species:S:1:pos:R:3 pbc="T T T" Time=598
Ar 6.041243 3.256963 5.025240
Ar 2.804170 3.992148 4.082533
Ar 5.056126 4.410184 1.518414
Ar 6.073320 4.735757 1.295380
Ar 5.322925 1.679232 1.867632
Ar 2.898698 1.058740 2.288879
Ar 4.735497 5.963541 3.649053
Ar 4.758624 2.374170 0.722110
Ar 2.546087 3.605079 6.066845
Ar 5.010138 6.022558 0.194041
10
Lattice="10.0 0 0 0 10.0 0 0 0 10.0" Properties=species:S:1:pos:R:3 pbc="T T T" Time=599
Ar 6.050757 3.261030 5.033559
Ar 2.808401 3.997215 4.089195
Ar 5.063754 4.416163 1.519727
Ar 6.082802 4.743580 1.297414
Ar 5.330447 1.681848 1.869432
Ar 2.902106 1.058976 2.292289
Ar 4.742627 5.972423 3.653960
Ar 4.764923 2.376487 0.722975
Ar 2.549896 3.610204 6.075430
Ar 5.018500 6.031254 0.194316
10
Lattice="10.0 0 0 0 10.0 0 0 0 10.0" Properties=species:S:1:pos:R:3 pbc="T T T" Time=600
Ar 6.060271 3.265098 5.041878
Ar 2.812632 4.002281 4.095856
Ar 5.071382 4.422142 1.521040
Ar 6.092285 4.751402 1.299447
Ar 5.337969 1.684465 1.871231
Ar 2.905515 1.059213 2.295698
Ar 4.749758 5.981304 3.658867
Ar 4.771221 2.378803 0.723840
Ar 2.553705 3.615329 6.084015
Ar 5.026862 6.039950 0.194590
10
Lattice="10.0 0 0 0 10.0 0 0 0 10.0" Properties=species:S:1:pos:R:3 pbc="T T T" Time=601
Ar 6.069786 3.269166 5.050197
Ar 2.816863 4.007348 4.102518
Ar 5.079010 4.428121 1.522353
Ar 6.101767 4.759224 1.301480
Ar 5.345491 1.687081 1.873030
Ar 2.908923 1.059449 2.299108
Ar 4.756889 5.990186 3.663774
Ar 4.777520 2.381119 0.724705
Ar 2.557514 3.620454 6.092600
Ar 5.035224 6.048646 0.194865
10
Lattice="10.0 0 0 0 10.0 0 0 0 10.0" Properties=species:S:1:pos:R:3 pbc="T T T" Time=602
Ar 6.079300 3.273233 5.058516
Ar 2.821094 4.012415 4.109179
Ar 5.086638 4.434100 1.523666
Ar 6.111249 4.767046 1.303514
Ar 5.353013 1.689698 1.874830
Ar 2.912331 1.059686 2.302517
Ar 4.764019 5.999067 3.668681
Ar 4.783818 2.383436 0.725570
Ar 2.561324 3.625580 6.101185
Ar 5.043586 6.057342 0.195140
10
Lattice="10.0 0 0 0 10.0 0 0 0 10.0" Properties=species:S:1:pos:R:3 pbc="T T T" Time=603
Ar 6.088814 3.277301 5.066835
Ar 2.825325 4.017481 4.115841
Ar 5.094266 4.440079 1.524979
Ar 6.120731 4.774868 1.305547
Ar 5.360535 1.692314 1.876629
Ar 2.915739 1.059922 2.305927
Ar 4.771150 6.007948 3.673588
Ar 4.790117 2.385752 0.726436
Ar 2.565133 3.630705 6.109770
Ar 5.051948 6.066038 0.195414
10
Lattice="10.0 0 0 0 10.0 0 0 0 10.0" Properties=species:S:1:pos:R:3 pbc="T T T" Time=604
Ar 6.098328 3.281368 5.075154
Ar 2.829557 4.022548 4.122502
Ar 5.101894 4.446058 1.526292
Ar 6.130213 4.782690 1.307580
Ar 5.368057 1.694931 1.878429
Ar 2.919147 1.060159 2.309337
Ar 4.778281 6.016830 3.678495
Ar 4.796415 2.388069 0.727301
Ar 2.568942 3.635830 6.118355
Ar 5.060310 6.074734 0.195689
10
Lattice="10.0 0 0 0 10.0 0 0 0 10.0" Properties=species:S:1:pos:R:3 pbc="T T T" Time=605
Ar 6.107842 3.285436 5.083473
Ar 2.833788 4.027615 4.129164
Ar 5.109522 4.452037 1.527605
Ar 6.139696 4.790512 1.309614
Ar 5.375579 1.697548 1.880228
Ar 2.922555 1.060395 2.312746
Ar 4.785411 6.025711 3.683402
Ar 4.802714 2.390385 0.728166
Ar 2.572751 3.640956 6.126939
Ar 5.068672 6.083430 0.195963
10
Lattice="10.0 0 0 0 10.0 0 0 0 10.0" Properties=species:S:1:pos:R:3 pbc="T T T" Time=606
Ar 6.117356 3.289504 5.091792
Ar 2.838019 4.032681 4.135825
Ar 5.117150 4.458016 1.528918
Ar 6.149178 4.798334 1.311647
Ar 5.383101 1.700164 1.882028
Ar 2.925963 1.060632 2.316156
Ar 4.792542 6.034593 3.688309
Ar 4.809012 2.392702 0.729031
Ar 2.576560 3.646081 6.135524
Ar 5.077033 6.092126 0.196238
10
Lattice="10.0 0 0 0 10.0 0 0 0 10.0" Properties=species:S:1:pos:R:3 pbc="T T T" Time=607
Ar 6.126870 3.293571 5.100111
Ar 2.842250 4.037748 4.142487
Ar 5.124778 4.463995 1.530231
Ar 6.158660 4.806156 1.313681
Ar 5.390623 1.702781 1.883827
Ar 2.929371 1.060868 2.319565
Ar 4.799672 6.043474 3.693216
Ar 4.815311 2.395018 0.729896
Ar 2.580370 3.651206 6.144109
Ar 5.085395 6.100822 0.196513
10
Lattice="10.0 0 0 0 10.0 0 0 0 10.0" Properties=species:S:1:pos:R:3 pbc="T T T" Time=608
Ar 6.136384 3.297639 5.108430
Ar 2.846481 4.042815 4.149148
Ar 5.132406 4.469974 1.531544
Ar 6.168142 4.813978 1.315714
Ar 5.398145 1.705397 1.885626
Ar 2.932779 1.061105 2.322975
Ar 4.806803 6.052355 3.698123
Ar 4.821609 2.397335 0.730762
Ar 2.584179 3.656332 6.152694
Ar 5.093757 6.109518 0.196787
10
Lattice="10.0 0 0 0 10.0 0 0 0 10.0" Properties=species:S:1:pos:R:3 pbc="T T T" Time=609
Ar 6.145898 3.301706 5.116749
Ar 2.850712 4.047881 4.155810
Ar 5.140034 4.475954 1.532857
Ar 6.177624 4.821800 1.317747
Ar 5.405667 1.708014 1.887426
Ar 2.936187 1.061341 2.326385
Ar 4.813934 6.061237 3.703030
Ar 4.827908 2.399651 0.731627
Ar 2.587988 3.661457 6.161279
Ar 5.102119 6.118214 0.197062
10
Lattice="10.0 0 0 0 10.0 0 0 0 10.0" Properties=species:S:1:pos:R:3 pbc="T T T" Time=610
Ar 6.155412 3.305774 5.125068
Ar 2.854943 4.052948 4.162472
Ar 5.147662 4.481933 1.534170
Ar 6.187107 4.829622 1.319781
Ar 5.413190 1.710630 1.889225
Ar 2.939595 1.061578 2.329794
Ar 4.821064 6.070118 3.707937
Ar 4.834206 2.401968 0.732492
Ar 2.591797 3.666582 6.169864
Ar 5.110481 6.126910 0.197337
10
Lattice="10.0 0 0 0 10.0 0 0 0 10.0" Properties=species:S:1:pos:R:3 pbc="T T T" Time=611
Ar 6.164926 3.309842 5.133387
Ar 2.859175 4.058014 4.169133
Ar 5.155290 4.487912 1.535483
Ar 6.196589 4.837444 1.321814
Ar 5.420712 1.713247 1.891025
Ar 2.943003 1.061814 2.333204
Ar 4.828195 6.079000 3.712844
Ar 4.840505 2.404284 0.733357
Ar 2.595606 3.671708 6.178449
Ar 5.118843 6.135606 0.197611
10
Lattice="10.0 0 0 0 10.0 0 0 0 10.0" Properties=species:S:1:pos:R:3 pbc="T T T" Time=612
Ar 6.174440 3.313909 5.141706
Ar 2.863406 4.063081 4.175795
Ar 5.162918 4.493891 1.536796
Ar 6.206071 4.845267 1.323847
Ar 5.428234 1.715864 1.892824
Ar 2.946412 1.062051 2.336613
Ar 4.835326 6.087881 3.717752
Ar 4.846803 2.406601 0.734222
Ar 2.599415 3.676833 6.187034
Ar 5.127205 6.144302 0.197886
10
Lattice="10.0 0 0 0 10.0 0 0 0 10.0" Properties=species:S:1:pos:R:3 pbc="T T T" Time=613
Ar 6.183954 3.317977 5.150025
Ar 2.867637 4.068148 4.182456
Ar 5.170546 4.499870 1.538109
Ar 6.215553 4.853089 1.325881
Ar 5.435756 1.718480 1.894624
Ar 2.949820 1.062287 2.340023
Ar 4.842456 6.096762 3.722659
Ar 4.853102 2.408917 0.735088
Ar 2.603225 3.681958 6.195619
Ar 5.135567 6.152998 0.198160
10
Lattice="10.0 0 0 0 10.0 0 0 0 10.0" Properties=species:S:1:pos:R:3 pbc="T T T" Time=614
Ar 6.193468 3.322044 5.158344
Ar 2.871868 4.073214 4.189118
Ar 5.178174 4.505849 1.539422
Ar 6.225035 4.860911 1.327914
Ar 5.443278 1.721097 1.896423
Ar 2.953228 1.062524 2.343433
Ar 4.849587 6.105644 3.727566
Ar 4.859400 2.411234 0.735953
Ar 2.607034 3.687084 6.204204
Ar 5.143929 6.161693 0.198435
10
Lattice="10.0 0 0 0 10.0 0 0 0 10.0" Properties=species:S:1:pos:R:3 pbc="T T T" Time=615
Ar 6.202982 3.326112 5.166663
Ar 2.876099 4.078281 4.195779
Ar 5.185802 4.511828 1.540735
Ar 6.234518 4.868733 1.329947
Ar 5.450800 1.723713 1.898222
Ar 2.956636 1.062760 2.346842
Ar 4.856718 6.114525 3.732473
Ar 4.865699 2.413550 0.736818
Ar 2.610843 3.692209 6.212788
Ar 5.152291 6.170389 0.198710
10
Lattice="10.0 0 0 0 10.0 0 0 0 10.0" Properties=species:S:1:pos:R:3 pbc="T T T" Time=616
Ar 6.212496 3.330180 5.174982
Ar 2.880330 4.083348 4.202441
Ar 5.193430 4.517807 1.542048
Ar 6.244000 4.876555 1.331981
Ar 5.458322 1.726330 1.900022
Ar 2.960044 1.062997 2.350252
Ar 4.863848 6.123406 3.737380
Ar 4.871997 2.415867 0.737683
Ar 2.614652 3.697334 6.221373
Ar 5.160653 6.179085 0.198984
10
Lattice="10.0 0 0 0 10.0 0 0 0 10.0" Properties=species:S:1:pos:R:3 pbc="T T T" Time=617
Ar 6.222010 3.334247 5.183301
Ar 2.884561 4.088414 4.209102
Ar 5.201058 4.523786 1.543361
Ar 6.253482 4.884377 1.334014
Ar 5.465844 1.728946 1.901821
Ar 2.963452 1.063233 2.353661
Ar 4.870979 6.132288 3.742287
Ar 4.878296 2.418183 0.738548
Ar 2.618461 3.702460 6.229958
Ar 5.169015 6.187781 0.199259
10
Lattice="10.0 0 0 0 10.0 0 0 0 10.0" Properties=species:S:1:pos:R:3 pbc="T T T" Time=618
Ar 6.231524 3.338315 5.191620
Ar 2.888792 4.093481 4.215764
Ar 5.208686 4.529765 1.544674
Ar 6.262964 4.892199 1.336047
Ar 5.473366 1.731563 1.903621
Ar 2.966860 1.063469 2.357071
Ar 4.878109 6.141169 3.747194
Ar 4.884594 2.420500 0.739414
Ar 2.622270 3.707585 6.238543
Ar 5.177377 6.196477 0.199533
10
Lattice="10.0 0 0 0 10.0 0 0 0 10.0" Properties=species:S:1:pos:R:3 pbc="T T T" Time=619
Ar 6.241038 3.342382 5.199939
Ar 2.893024 4.098548 4.222425
Ar 5.216314 4.535744 1.545987
Ar 6.272446 4.900021 1.338081
Ar 5.480888 1.734180 1.905420
Ar 2.970268 1.063706 2.360481
Ar 4.885240 6.150051 3.752101
Ar 4.890893 2.422816 0.740279
Ar 2.626080 3.712710 6.247128
Ar 5.185739 6.205173 0.199808
10
Lattice="10.0 0 0 0 10.0 0 0 0 10.0" Properties=species:S:1:pos:R:3 pbc="T T T" Time=620
Ar 6.250552 3.346450 5.208258
Ar 2.897255 4.103614 4.229087
Ar 5.223942 4.541723 1.547300
Ar 6.281929 4.907843 1.340114
Ar 5.488410 1.736796 1.907220
Ar 2.973676 1.063942 2.363890
Ar 4.892371 6.158932 3.757008
Ar 4.897191 2.425133 0.741144
Ar 2.629889 3.717836 6.255713
Ar 5.194101 6.213869 0.200083
10
Lattice="10.0 0 0 0 10.0 0 0 0 10.0" Properties=species:S:1:pos:R:3 pbc="T T T" Time=621
Ar 6.260066 3.350517 5.216577
Ar 2.901486 4.108681 4.235748
Ar 5.231570 4.547702 1.548613
Ar 6.291411 4.915665 1.342147
Ar 5.495933 1.739413 1.909019
Ar 2.977084 1.064179 2.367300
Ar 4.899501 6.167813 3.761915
Ar 4.903490 2.427449 0.742009
Ar 2.633698 3.722961 6.264298
Ar 5.202463 6.222565 0.200357
10
Lattice="10.0 0 0 0 10.0 0 0 0 10.0" Properties=species:S:1:pos:R:3 pbc="T T T" Time=622
Ar 6.269580 3.354585 5.224896
Ar 2.905717 4.113748 4.242410
Ar 5.239198 4.553682 1.549926
Ar 6.300893 4.923487 1.344181
Ar 5.503455 1.742029 1.910818
Ar 2.980492 1.064415 2.370709
Ar 4.906632 6.176695 3.766822
Ar 4.909788 2.429766 0.742875
Ar 2.637507 3.728086 6.272883
Ar 5.210825 6.231261 0.200632
10
Lattice="10.0 0 0 0 10.0 0 0 0 10.0" Properties=species:S:1:pos:R:3 pbc="T T T" Time=623
Ar 6.279095 3.358653 5.233215
Ar 2.909948 4.118814 4.249072
Ar 5.246826 4.559661 1.551239
Ar 6.310375 4.931309 1.346214
Ar 5.510977 1.744646 1.912618
Ar 2.983900 1.064652 2.374119
Ar 4.913763 6.185576 3.771729
Ar 4.916087 2.432082 0.743740
Ar 2.641316 3.733212 6.281468
Ar 5.219187 6.239957 0.200907
10
Lattice="10.0 0 0 0 10.0 0 0 0 10.0" Properties=species:S:1:pos:R:3 pbc="T T T" Time=624
Ar 6.288609 3.362720 5.241534
Ar 2.914179 4.123881 4.255733
Ar 5.254454 4.565640 1.552552
Ar 6.319857 4.939131 1.348248
Ar 5.518499 1.747262 1.914417
Ar 2.987309 1.064888 2.377529
Ar 4.920893 6.194458 3.776636
Ar 4.922385 2.434399 0.744605
Ar 2.645126 3.738337 6.290052
Ar 5.227549 6.248653 0.201181
10
Lattice="10.0 0 0 0 10.0 0 0 0 10.0" Properties=species:S:1:pos:R:3 pbc="T T T" Time=625
Ar 6.298123 3.366788 5.249853
Ar 2.918410 4.128947 4.262395
Ar 5.262082 4.571619 1.553865
Ar 6.329340 4.946954 1.350281
Ar 5.526021 1.749879 1.916217
Ar 2.990717 1.065125 2.380938
Ar 4.928024 6.203339 3.781543
Ar 4.928684 2.436715 0.745470
Ar 2.648935 3.743462 6.298637
Ar 5.235911 6.257349 0.201456
10
Lattice="10.0 0 0 0 10.0 0 0 0 10.0" Properties=species:S:1:pos:R:3 pbc="T T T" Time=626
Ar 6.307637 3.370855 5.258172
Ar 2.922642 4.134014 4.269056
Ar 5.269710 4.577598 1.555178
Ar 6.338822 4.954776 1.352314
Ar 5.533543 1.752496 1.918016
Ar 2.994125 1.065361 2.384348
Ar 4.935154 6.212220 3.786450
Ar 4.934982 2.439032 0.746335
Ar 2.652744 3.748587 6.307222
Ar 5.244273 6.266045 0.201730
10
Lattice="10.0 0 0 0 10.0 0 0 0 10.0" Properties=species:S:1:pos:R:3 pbc="T T T" Time=627
Ar 6.317151 3.374923 5.266491
Ar 2.926873 4.139081 4.275718
Ar 5.277338 4.583577 1.556491
Ar 6.348304 4.962598 1.354348
Ar 5.541065 1.755112 1.919816
Ar 2.997533 1.065598 2.387757
Ar 4.942285 6.221102 3.791357
Ar 4.941281 2.441348 0.747201
Ar 2.656553 3.753713 6.315807
Ar 5.252635 6.274741 0.202005
10
Lattice="10.0 0 0 0 10.0 0 0 0 10.0" Properties=species:S:1:pos:R:3 pbc="T T T" Time=628
Ar 6.326665 3.378991 5.274810
Ar 2.931104 4.144147 4.282379
Ar 5.284966 4.589556 1.557804
Ar 6.357786 4.970420 1.356381
Ar 5.548587 1.757729 1.921615
Ar 3.000941 1.065834 2.391167
Ar 4.949416 6.229983 3.796264
Ar 4.947579 2.443665 0.748066
Ar 2.660362 3.758838 6.324392
Ar 5.260997 6.283437 0.202280
10
Lattice="10.0 0 0 0 10.0 0 0 0 10.0" Properties=species:S:1:pos:R:3 pbc="T T T" Time=629
Ar 6.336179 3.383058 5.283129
Ar 2.935335 4.149214 4.289041
Ar 5.292594 4.595535 1.559117
Ar 6.367268 4.978242 1.358414
Ar 5.556109 1.760345 1.923414
Ar 3.004349 1.066071 2.394577
Ar 4.956546 6.238865 3.801171
Ar 4.953878 2.445981 0.748931
Ar 2.664171 3.763963 6.332977
Ar 5.269359 6.292133 0.202554
10
Lattice="10.0 0 0 0 10.0 0 0 0 10.0" Properties=species:S:1:pos:R:3 pbc="T T T" Time=630
Ar 6.345693 3.387126 5.291448
Ar 2.939566 4.154281 4.295702
Ar 5.300222 4.601514 1.560430
Ar 6.376751 4.986064 1.360448
Ar 5.563631 1.762962 1.925214
Ar 3.007757 1.066307 2.397986
Ar 4.963677 6.247746 3.806078
Ar 4.960176 2.448298 0.749796
Ar 2.667981 3.769089 6.341562
Ar 5.277721 6.300829 0.202829
10
Lattice="10.0 0 0 0 10.0 0 0 0 10.0" Properties=species:S:1:pos:R:3 pbc="T T T" Time=631
Ar 6.355207 3.391193 5.299767
Ar 2.943797 4.159347 4.302364
Ar 5.307850 4.607493 1.561743
Ar 6.386233 4.993886 1.362481
Ar 5.571153 1.765578 1.927013
Ar 3.011165 1.066544 2.401396
Ar 4.970808 6.256627 3.810985
Ar 4.966475 2.450614 0.750661
Ar 2.671790 3.774214 6.350147
Ar 5.286083 6.309525 0.203104
10
Lattice="10.0 0 0 0 10.0 0 0 0 10.0" Properties=species:S:1:pos:R:3 pbc="T T T" Time=632
Ar 6.364721 3.395261 5.308086
Ar 2.948028 4.164414 4.309025
Ar 5.315478 4.613472 1.563056
Ar 6.395715 5.001708 1.364514
Ar 5.578675 1.768195 1.928813
Ar 3.014573 1.066780 2.404805
Ar 4.977938 6.265509 3.815892
Ar 4.972773 2.452931 0.751527
Ar 2.675599 3.779339 6.358732
Ar 5.294445 6.318221 0.203378
10
Lattice="10.0 0 0 0 10.0 0 0 0 10.0" Properties=species:S:1:pos:R:3 pbc="T T T" Time=633
Ar 6.374235 3.399329 5.316405
Ar 2.952259 4.169481 4.315687
Ar 5.323106 4.619451 1.564369
Ar 6.405197 5.009530 1.366548
Ar 5.586198 1.770812 1.930612
Ar 3.017981 1.067017 2.408215
Ar 4.985069 6.274390 3.820800
Ar 4.979072 2.455247 0.752392
Ar 2.679408 3.784465 6.367317
Ar 5.302806 6.326917 0.203653
10
Lattice="10.0 0 0 0 10.0 0 0 0 10.0" Properties=species:S:1:pos:R:3 pbc="T T T" Time=634
Ar 6.383749 3.403396 5.324724
Ar 2.956491 4.174547 4.322349
Ar 5.330734 4.625430 1.565682
Ar 6.414679 5.017352 1.368581
Ar 5.593720 1.773428 1.932412
Ar 3.021389 1.067253 2.411625
Ar 4.992199 6.283272 3.825707
Ar 4.985370 2.457564 0.753257
Ar 2.683217 3.789590 6.375901
Ar 5.311168 6.335613 0.203927
10
Lattice="10.0 0 0 0 10.0 0 0 0 10.0" Properties=species:S:1:pos:R:3 pbc="T T T" Time=635
Ar 6.393263 3.407464 5.333043
Ar 2.960722 4.179614 4.329010
Ar 5.338362 4.631410 1.566995
Ar 6.424162 5.025174 1.370614
Ar 5.601242 1.776045 1.934211
Ar 3.024797 1.067490 2.415034
Ar 4.999330 6.292153 3.830614
Ar 4.991668 2.459880 0.754122
Ar 2.687026 3.794715 6.384486
Ar 5.319530 6.344309 0.204202
10
Lattice="10.0 0 0 0 10.0 0 0 0 10.0" Properties=species:S:1:pos:R:3 pbc="T T T" Time=636
Ar 6.402777 3.411531 5.341362
Ar 2.964953 4.184680 4.335672
Ar 5.345990 4.637389 1.568308
Ar 6.433644 5.032996 1.372648
Ar 5.608764 1.778661 1.936010
Ar 3.028206 1.067726 2.418444
Ar 5.006461 6.301034 3.835521
Ar 4.997967 2.462197 0.754987
Ar 2.690836 3.799841 6.393071
Ar 5.327892 6.353004 0.204477
10
Lattice="10.0 0 0 0 10.0 0 0 0 10.0" Properties=species:S:1:pos:R:3 pbc="T T T" Time=637
Ar 6.412291 3.415599 5.349681
Ar 2.969184 4.189747 4.342333
Ar 5.353618 4.643368 1.569621
Ar 6.443126 5.040818 1.374681
Ar 5.616286 1.781278 1.937810
Ar 3.031614 1.067962 2.421853
Ar 5.013591 6.309916 3.840428
Ar 5.004265 2.464513 0.755853
Ar 2.694645 3.804966 6.401656
Ar 5.336254 6.361700 0.204751
10
Lattice="10.0 0 0 0 10.0 0 0 0 10.0" Properties=species:S:1:pos:R:3 pbc="T T T" Time=638
Ar 6.421805 3.419667 5.358000
Ar 2.973415 4.194814 4.348995
Ar 5.361246 4.649347 1.570934
Ar 6.452608 5.048641 1.376714
Ar 5.623808 1.783894 1.939609
Ar 3.035022 1.068199 2.425263
Ar 5.020722 6.318797 3.845335
Ar 5.010564 2.466830 0.756718
Ar 2.698454 3.810091 6.410241
Ar 5.344616 6.370396 0.205026
10
Lattice="10.0 0 0 0 10.0 0 0 0 10.0" Properties=species:S:1:pos:R:3 pbc="T T T" Time=639
Ar 6.431319 3.423734 5.366319
Ar 2.977646 4.199880 4.355656
Ar 5.368874 4.655326 1.572247
Ar 6.462090 5.056463 1.378748
Ar 5.631330 1.786511 1.941409
Ar 3.038430 1.068435 2.428672
Ar 5.027853 6.327679 3.850242
Ar 5.016862 2.469146 0.757583
Ar 2.702263 3.815217 6.418826
Ar 5.352978 6.379092 0.205300
10
Lattice="10.0 0 0 0 10.0 0 0 0 10.0" Properties=species:S:1:pos:R:3 pbc="T T T" Time=640
Ar 6.440833 3.427802 5.374638
Ar 2.981877 4.204947 4.362318
Ar 5.376502 4.661305 1.573560
Ar 6.471573 5.064285 1.380781
Ar 5.638852 1.789128 1.943208
Ar 3.041838 1.068672 2.432082
Ar 5.034983 6.336560 3.855149
Ar 5.023161 2.471463 0.758448
Ar 2.706072 3.820342 6.427411
Ar 5.361340 6.387788 0.205575
10
Lattice="10.0 0 0 0 10.0 0 0 0 10.0" Properties=species:S:1:pos:R:3 pbc="T T T" Time=641
Ar 6.450347 3.431869 5.382957
Ar 2.986109 4.210014 4.368979
Ar 5.384130 4.667284 1.574873
Ar 6.481055 5.072107 1.382815
Ar 5.646374 1.791744 1.945007
Ar 3.045246 1.068908 2.435492
Ar 5.042114 6.345441 3.860056
Ar 5.029459 2.473779 0.759313
Ar 2.709882 3.825467 6.435996
Ar 5.369702 6.396484 0.205850
10
Lattice="10.0 0 0 0 10.0 0 0 0 10.0" Properties=species:S:1:pos:R:3 pbc="T T T" Time=642
Ar 6.459861 3.435937 5.391276
Ar 2.990340 4.215080 4.375641
Ar 5.391758 4.673263 1.576186
Ar 6.490537 5.079929 1.384848
Ar 5.653896 1.794361 1.946807
Ar 3.048654 1.069145 2.438901
Ar 5.049244 6.354323 3.864963
Ar 5.035758 2.476096 0.760179
Ar 2.713691 3.830593 6.444581
Ar 5.378064 6.405180 0.206124
10
Lattice="10.0 0 0 0 10.0 0 0 0 10.0" Properties=species:S:1:pos:R:3 pbc="T T T" Time=643
Ar 6.469375 3.440005 5.399595
Ar 2.994571 4.220147 4.382302
Ar 5.399386 4.679242 1.577499
Ar 6.500019 5.087751 1.386881
Ar 5.661418 1.796977 1.948606
Ar 3.052062 1.069381 2.442311
Ar 5.056375 6.363204 3.869870
Ar 5.042056 2.478412 0.761044
Ar 2.717500 3.835718 6.453165
Ar 5.386426 6.413876 0.206399
10
Lattice="10.0 0 0 0 10.0 0 0 0 10.0" Properties=species:S:1:pos:R:3 pbc="T T T" Time=644
Ar 6.478889 3.444072 5.407914
Ar 2.998802 4.225214 4.388964
Ar 5.407014 4.685221 1.578812
Ar 6.509502 5.095573 1.388915
Ar 5.668940 1.799594 1.950406
Ar 3.055470 1.069618 2.445720
Ar 5.063506 6.372085 3.874777
Ar 5.048355 2.480728 0.761909
Ar 2.721309 3.840843 6.461750
Ar 5.394788 6.422572 0.206674
10
Lattice="10.0 0 0 0 10.0 0 0 0 10.0" Properties=species:S:1:pos:R:3 pbc="T T T" Time=645
Ar 6.488404 3.448140 5.416233
Ar 3.003033 4.230280 4.395625
Ar 5.414642 4.691200 1.580125
Ar 6.518984 5.103395 1.390948
Ar 5.676463 1.802210 1.952205
Ar 3.058878 1.069854 2.449130
Ar 5.070636 6.380967 3.879684
Ar 5.054653 2.483045 0.762774
Ar 2.725118 3.845969 6.470335
Ar 5.403150 6.431268 0.206948
10
Lattice="10.0 0 0 0 10.0 0 0 0 10.0" Properties=species:S:1:pos:R:3 pbc="T T T" Time=646
Ar 6.497918 3.452207 5.424552
Ar 3.007264 4.235347 4.402287
Ar 5.422270 4.697179 1.581438
Ar 6.528466 5.111217 1.392981
Ar 5.683985 1.804827 1.954005
Ar 3.062286 1.070091 2.452540
Ar 5.077767 6.389848 3.884591
Ar 5.060952 2.485361 0.763639
Ar 2.728927 3.851094 6.478920
Ar 5.411512 6.439964 0.207223
10
Lattice="10.0 0 0 0 10.0 0 0 0 10.0" Properties=species:S:1:pos:R:3 pbc="T T T" Time=647
Ar 6.507432 3.456275 5.432871
Ar 3.011495 4.240414 4.408949
Ar 5.429898 4.703158 1.582751
Ar 6.537948 5.119039 1.395015
Ar 5.691507 1.807444 1.955804
Ar 3.065694 1.070327 2.455949
Ar 5.084898 6.398730 3.889498
Ar 5.067250 2.487678 0.764505
Ar 2.732737 3.856219 6.487505
Ar 5.419874 6.448660 0.207497
10
Lattice="10.0 0 0 0 10.0 0 0 0 10.0" Properties=species:S:1:pos:R:3 pbc="T T T" Time=648
Ar 6.516946 3.460342 5.441190
Ar 3.015727 4.245480 4.415610
Ar 5.437526 4.709138 1.584064
Ar 6.547430 5.126861 1.397048
Ar 5.699029 1.810060 1.957603
Ar 3.069103 1.070564 2.459359
Ar 5.092028 6.407611 3.894405
Ar 5.073549 2.489994 0.765370
Ar 2.736546 3.861345 6.496090
Ar 5.428236 6.457356 0.207772
10
Lattice="10.0 0 0 0 10.0 0 0 0 10.0" Properties=species:S:1:pos:R:3 pbc="T T T" Time=649
Ar 6.526460 3.464410 5.449509
Ar 3.019958 4.250547 4.422272
Ar 5.445154 4.715117 1.585377
Ar 6.556913 5.134683 1.399081
Ar 5.706551 1.812677 1.959403
Ar 3.072511 1.070800 2.462768
Ar 5.099159 6.416492 3.899312
Ar 5.079847 2.492311 0.766235
Ar 2.740355 3.866470 6.504675
Ar 5.436598 6.466052 0.208047
10
Lattice="10.0 0 0 0 10.0 0 0 0 10.0" Properties=species:S:1:pos:R:3 pbc="T T T" Time=650
Ar 6.535974 3.468478 5.457828
Ar 3.024189 4.255613 4.428933
Ar 5.452781 4.721096 1.586690
Ar 6.566395 5.142505 1.401115
Ar 5.714073 1.815293 1.961202
Ar 3.075919 1.071037 2.466178
Ar 5.106290 6.425374 3.904219
Ar 5.086146 2.494627 0.767100
Ar 2.744164 3.871595 6.513260
Ar 5.444960 6.474748 0.208321
10
Lattice="10.0 0 0 0 10.0 0 0 0 10.0" Properties=species:S:1:pos:R:3 pbc="T T T" Time=651
Ar 6.545488 3.472545 5.466147
Ar 3.028420 4.260680 4.435595
Ar 5.460409 4.727075 1.588003
Ar 6.575877 5.150328 1.403148
Ar 5.721595 1.817910 1.963002
Ar 3.079327 1.071273 2.469588
Ar 5.113420 6.434255 3.909126
Ar 5.092444 2.496944 0.767965
Ar 2.747973 3.876721 6.521845
Ar 5.453322 6.483444 0.208596
10
Lattice="10.0 0 0 0 10.0 0 0 0 10.0" Properties=species:S:1:pos:R:3 pbc="T T T" Time=652
Ar 6.555002 3.476613 5.474466
Ar 3.032651 4.265747 4.442256
Ar 5.468037 4.733054 1.589316
Ar 6.585359 5.158150 1.405181
Ar 5.729117 1.820526 1.964801
Ar 3.082735 1.071510 2.472997
Ar 5.120551 6.443137 3.914033
Ar 5.098743 2.499260 0.768831
Ar 2.751782 3.881846 6.530430
Ar 5.461684 6.492140 0.208870
10
Lattice="10.0 0 0 0 10.0 0 0 0 10.0" Properties=species:S:1:pos:R:3 pbc="T T T" Time=653
Ar 6.564516 3.480680 5.482785
Ar 3.036882 4.270813 4.448918
Ar 5.475665 4.739033 1.590629
Ar 6.594841 5.165972 1.407215
Ar 5.736639 1.823143 1.966601
Ar 3.086143 1.071746 2.476407
Ar 5.127681 6.452018 3.918940
Ar 5.105041 2.501577 0.769696
Ar 2.755592 3.886971 6.539014
Ar 5.470046 6.500836 0.209145
10
Lattice="10.0 0 0 0 10.0 0 0 0 10.0" Properties=species:S:1:pos:R:3 pbc="T T T" Time=654
Ar 6.574030 3.484748 5.491104
Ar 3.041113 4.275880 4.455579
Ar 5.483293 4.745012 1.591942
Ar 6.604324 5.173794 1.409248
Ar 5.744161 1.825760 1.968400
Ar 3.089551 1.071983 2.479816
Ar 5.134812 6.460899 3.923848
Ar 5.111340 2.503893 0.770561
Ar 2.759401 3.892096 6.547599
Ar 5.478408 6.509532 0.209420
10
Lattice="10.0 0 0 0 10.0 0 0 0 10.0" Properties=species:S:1:pos:R:3 pbc="T T T" Time=655
Ar 6.583544 3.488816 5.499423
Ar 3.045344 4.280947 4.462241
Ar 5.490921 4.750991 1.593255
Ar 6.613806 5.181616 1.411281
Ar 5.751683 1.828376 1.970199
Ar 3.092959 1.072219 2.483226
Ar 5.141943 6.469781 3.928755
Ar 5.117638 2.506210 0.771426
Ar 2.763210 3.897222 6.556184
Ar 5.486770 6.518228 0.209694
10
Lattice="10.0 0 0 0 10.0 0 0 0 10.0" Properties=species:S:1:pos:R:3 pbc="T T T" Time=656
Ar 6.593058 3.492883 5.507742
Ar 3.049576 4.286013 4.468902
Ar 5.498549 4.756970 1.594568
Ar 6.623288 5.189438 1.413315
Ar 5.759206 1.830993 1.971999
Ar 3.096367 1.072455 2.486636
Ar 5.149073 6.478662 3.933662
Ar 5.123937 2.508526 0.772291
Ar 2.767019 3.902347 6.564769
Ar 5.495132 6.526924 0.209969
10
Lattice="10.0 0 0 0 10.0 0 0 0 10.0" Properties=species:S:1:pos:R:3 pbc="T T T" Time=657
Ar 6.602572 3.496951 5.516061
Ar 3.053807 4.291080 4.475564
Ar 5.506177 4.762949 1.595881
Ar 6.632770 5.197260 1.415348
Ar 5.766728 1.833609 1.973798
Ar 3.099775 1.072692 2.490045
Ar 5.156204 6.487544 3.938569
Ar 5.130235 2.510843 0.773157
Ar 2.770828 3.907472 6.573354
Ar 5.503494 6.535619 0.210244
10
Lattice="10.0 0 0 0 10.0 0 0 0 10.0" Properties=species:S:1:pos:R:3 pbc="T T T" Time=658
Ar 6.612086 3.501018 5.524380
Ar 3.058038 4.296147 4.482226
Ar 5.513805 4.768928 1.597194
Ar 6.642252 5.205082 1.417382
Ar 5.774250 1.836226 1.975598
Ar 3.103183 1.072928 2.493455
Ar 5.163335 6.496425 3.943476
Ar 5.136534 2.513159 0.774022
Ar 2.774638 3.912598 6.581939
Ar 5.511856 6.544315 0.210518
10
Lattice="10.0 0 0 0 10.0 0 0 0 10.0" Properties=species:S:1:pos:R:3 pbc="T T T" Time=659
Ar 6.621600 3.505086 5.532699
Ar 3.062269 4.301213 4.488887
Ar 5.521433 4.774907 1.598507
Ar 6.651735 5.212904 1.419415
Ar 5.781772 1.838842 1.977397
Ar 3.106591 1.073165 2.496864
Ar 5.170465 6.505306 3.948383
Ar 5.142832 2.515476 0.774887
Ar 2.778447 3.917723 6.590524
Ar 5.520218 6.553011 0.210793
10
Lattice="10.0 0 0 0 10.0 0 0 0 10.0" Properties=species:S:1:pos:R:3 pbc="T T T" Time=660
Ar 6.631114 3.509154 5.541018
Ar 3.066500 4.306280 4.495549
Ar 5.529061 4.780886 1.599820
Ar 6.661217 5.220726 1.421448
Ar 5.789294 1.841459 1.979197
Ar 3.110000 1.073401 2.500274
Ar 5.177596 6.514188 3.953290
Ar 5.149131 2.517792 0.775752
Ar 2.782256 3.922848 6.599109
Ar 5.528579 6.561707 0.211067
10
Lattice="10.0 0 0 0 10.0 0 0 0 10.0" Properties=species:S:1:pos:R:3 pbc="T T T" Time=661
Ar 6.640628 3.513221 5.549337
Ar 3.070731 4.311347 4.502210
Ar 5.536689 4.786866 1.601133
Ar 6.670699 5.228548 1.423482
Ar 5.796816 1.844076 1.980996
Ar 3.113408 1.073638 2.503684
Ar 5.184726 6.523069 3.958197
Ar 5.155429 2.520109 0.776617
Ar 2.786065 3.927974 6.607694
Ar 5.536941 6.570403 0.211342
10
Lattice="10.0 0 0 0 10.0 0 0 0 10.0" Properties=species:S:1:pos:R:3 pbc="T T T" Time=662
Ar 6.650142 3.517289 5.557656
Ar 3.074962 4.316413 4.508872
Ar 5.544317 4.792845 1.602446
Ar 6.680181 5.236370 1.425515
Ar 5.804338 1.846692 1.982795
Ar 3.116816 1.073874 2.507093
Ar 5.191857 6.531951 3.963104
Ar 5.161728 2.522425 0.777483
Ar 2.789874 3.933099 6.616278
Ar 5.545303 6.579099 0.211617
10
Lattice="10.0 0 0 0 10.0 0 0 0 10.0" Properties=species:S:1:pos:R:3 pbc="T T T" Time=663
Ar 6.659656 3.521356 5.565975
Ar 3.079194 4.321480 4.515533
Ar 5.551945 4.798824 1.603759
Ar 6.689663 5.244192 1.427548
Ar 5.811860 1.849309 1.984595
Ar 3.120224 1.074111 2.510503
Ar 5.198988 6.540832 3.968011
Ar 5.168026 2.524742 0.778348
Ar 2.793683 3.938224 6.624863
Ar 5.553665 6.587795 0.211891
10
Lattice="10.0 0 0 0 10.0 0 0 0 10.0" Properties=species:S:1:pos:R:3 pbc="T T T" Time=664
Ar 6.669170 3.525424 5.574294
Ar 3.083425 4.326546 4.522195
Ar 5.559573 4.804803 1.605072
Ar 6.699146 5.252015 1.429582
Ar 5.819382 1.851925 1.986394
Ar 3.123632 1.074347 2.513912
Ar 5.206118 6.549713 3.972918
Ar 5.174325 2.527058 0.779213
Ar 2.797493 3.943350 6.633448
Ar 5.562027 6.596491 0.212166
10
Lattice="10.0 0 0 0 10.0 0 0 0 10.0" Properties=species:S:1:pos:R:3 pbc="T T T" Time=665
Ar 6.678684 3.529492 5.582613
Ar 3.087656 4.331613 4.528856
Ar 5.567201 4.810782 1.606385
Ar 6.708628 5.259837 1.431615
Ar 5.826904 1.854542 1.988194
Ar 3.127040 1.074584 2.517322
Ar 5.213249 6.558595 3.977825
Ar 5.180623 2.529375 0.780078
Ar 2.801302 3.948475 6.642033
Ar 5.570389 6.605187 0.212441
10
Lattice="10.0 0 0 0 10.0 0 0 0 10.0" Properties=species:S:1:pos:R:3 pbc="T T T" Time=666
Ar 6.688198 3.533559 5.590932
Ar 3.091887 4.336680 4.535518
Ar 5.574829 4.816761 1.607698
Ar 6.718110 5.267659 1.433648
Ar 5.834426 1.857158 1.989993
Ar 3.130448 1.074820 2.520732
Ar 5.220380 6.567476 3.982732
Ar 5.186922 2.531691 0.780943
Ar 2.805111 3.953600 6.650618
Ar 5.578751 6.613883 0.212715
10
Lattice="10.0 0 0 0 10.0 0 0 0 10.0" Properties=species:S:1:pos:R:3 pbc="T T T" Time=667
Ar 6.697712 3.537627 5.599251
Ar 3.096118 4.341746 4.542179
Ar 5.582457 4.822740 1.609012
Ar 6.727592 5.275481 1.435682
Ar 5.841948 1.859775 1.991793
Ar 3.133856 1.075057 2.524141
Ar 5.227510 6.576357 3.987639
Ar 5.193220 2.534008 0.781809
Ar 2.808920 3.958726 6.659203
Ar 5.587113 6.622579 0.212990
10
Lattice="10.0 0 0 0 10.0 0 0 0 10.0" Properties=species:S:1:pos:R:3 pbc="T T T" Time=668
Ar 6.707227 3.541694 5.607570
Ar 3.100349 4.346813 4.548841
Ar 5.590085 4.828719 1.610325
Ar 6.737074 5.283303 1.437715
Ar 5.849471 1.862392 1.993592
Ar 3.137264 1.075293 2.527551
Ar 5.234641 6.585239 3.992546
Ar 5.199519 2.536324 0.782674
Ar 2.812729 3.963851 6.667788
Ar 5.595475 6.631275 0.213264
10
Lattice="10.0 0 0 0 10.0 0 0 0 10.0" Properties=species:S:1:pos:R:3 pbc="T T T" Time=669
Ar 6.716741 3.545762 5.615889
Ar 3.104580 4.351880 4.555502
Ar 5.597713 4.834698 1.611638
Ar 6.746557 5.291125 1.439748
Ar 5.856993 1.865008 1.995391
Ar 3.140672 1.075530 2.530960
Ar 5.241771 6.594120 3.997453
Ar 5.205817 2.538641 0.783539
Ar 2.816539 3.968976 6.676373
Ar 5.603837 6.639971 0.213539
10
Lattice="10.0 0 0 0 10.0 0 0 0 10.0" Properties=species:S:1:pos:R:3 pbc="T T T" Time=670
Ar 6.726255 3.549830 5.624208
Ar 3.108811 4.356946 4.562164
Ar 5.605341 4.840677 1.612951
Ar 6.756039 5.298947 1.441782
Ar 5.864515 1.867625 1.997191
Ar 3.144080 1.075766 2.534370
Ar 5.248902 6.603002 4.002360
Ar 5.212116 2.540957 0.784404
Ar 2.820348 3.974102 6.684958
Ar 5.612199 6.648667 0.213814
10
Lattice="10.0 0 0 0 10.0 0 0 0 10.0" Properties=species:S:1:pos:R:3 pbc="T T T" Time=671
Ar 6.735769 3.553897 5.632527
Ar 3.113043 4.362013 4.568826
Ar 5.612969 4.846656 1.614264
Ar 6.765521 5.306769 1.443815
Ar 5.872037 1.870241 1.998990
Ar 3.147488 1.076003 2.537780
Ar 5.256033 6.611883 4.007267
Ar 5.218414 2.543274 0.785269
Ar 2.824157 3.979227 6.693543
Ar 5.620561 6.657363 0.214088
10
Lattice="10.0 0 0 0 10.0 0 0 0 10.0" Properties=species:S:1:pos:R:3 pbc="T T T" Time=672
Ar 6.745283 3.557965 5.640846
Ar 3.117274 4.367080 4.575487
Ar 5.620597 4.852635 1.615577
Ar 6.775003 5.314591 1.445848
Ar 5.879559 1.872858 2.000790
Ar 3.150897 1.076239 2.541189
Ar 5.263163 6.620764 4.012174
Ar 5.224713 2.545590 0.786135
Ar 2.827966 3.984352 6.702127
Ar 5.628923 6.666059 0.214363
10
Lattice="10.0 0 0 0 10.0 0 0 0 10.0" Properties=species:S:1:pos:R:3 pbc="T T T" Time=673
Ar 6.754797 3.562032 5.649165
Ar 3.121505 4.372146 4.582149
Ar 5.628225 4.858614 1.616890
Ar 6.784485 5.322413 1.447882
Ar 5.887081 1.875474 2.002589
Ar 3.154305 1.076476 2.544599
Ar 5.270294 6.629646 4.017081
Ar 5.231011 2.547907 0.787000
Ar 2.831775 3.989478 6.710712
Ar 5.637285 6.674755 0.214637
10
Lattice="10.0 0 0 0 10.0 0 0 0 10.0" Properties=species:S:1:pos:R:3 pbc="T T T" Time=674
Ar 6.764311 3.566100 5.657484
Ar 3.125736 4.377213 4.588810
Ar 5.635853 4.864594 1.618203
Ar 6.793968 5.330235 1.449915
Ar 5.894603 1.878091 2.004388
Ar 3.157713 1.076712 2.548008
Ar 5.277425 6.638527 4.021988
Ar 5.237310 2.550223 0.787865
Ar 2.835584 3.994603 6.719297
Ar 5.645647 6.683451 0.214912
10
Lattice="10.0 0 0 0 10.0 0 0 0 10.0" Properties=species:S:1:pos:R:3 pbc="T T T" Time=675
Ar 6.773825 3.570167 5.665803
Ar 3.129967 4.382280 4.595472
Ar 5.643481 4.870573 1.619516
Ar 6.803450 5.338057 1.451949
Ar 5.902125 1.880708 2.006188
Ar 3.161121 1.076948 2.551418
Ar 5.284555 6.647409 4.026896
Ar 5.243608 2.552540 0.788730
Ar 2.839394 3.999728 6.727882
Ar 5.654009 6.692147 0.215187
10
Lattice="10.0 0 0 0 10.0 0 0 0 10.0" Properties=species:S:1:pos:R:3 pbc="T T T" Time=676
Ar 6.783339 3.574235 5.674122
Ar 3.134198 4.387346 4.602133
Ar 5.651109 4.876552 1.620829
Ar 6.812932 5.345879 1.453982
Ar 5.909647 1.883324 2.007987
Ar 3.164529 1.077185 2.554828
Ar 5.291686 6.656290 4.031803
Ar 5.249907 2.554856 0.789595
Ar 2.843203 4.004854 6.736467
Ar 5.662371 6.700843 0.215461
10
Lattice="10.0 0 0 0 10.0 0 0 0 10.0" Properties=species:S:1:pos:R:3 pbc="T T T" Time=677
Ar 6.792853 3.578303 5.682441
Ar 3.138429 4.392413 4.608795
Ar 5.658737 4.882531 1.622142
Ar 6.822414 5.353702 1.456015
Ar 5.917169 1.885941 2.009787
Ar 3.167937 1.077421 2.558237
Ar 5.298816 6.665171 4.036710
Ar 5.256205 2.557173 0.790461
Ar 2.847012 4.009979 6.745052
Ar 5.670733 6.709539 0.215736
10
Lattice="10.0 0 0 0 10.0 0 0 0 10.0" Properties=species:S:1:pos:R:3 pbc="T T T" Time=678
Ar 6.802367 3.582370 5.690760
Ar 3.142661 4.397479 4.615456
Ar 5.666365 4.888510 1.623455
Ar 6.831896 5.361524 1.458049
Ar 5.924691 1.888557 2.011586
Ar 3.171345 1.077658 2.561647
Ar 5.305947 6.674053 4.041617
Ar 5.262504 2.559489 0.791326
Ar 2.850821 4.015104 6.753637
Ar 5.679095 6.718235 0.216011
10
Lattice="10.0 0 0 0 10.0 0 0 0 10.0" Properties=species:S:1:pos:R:3 pbc="T T T" Time=679
Ar 6.811881 3.586438 5.699079
Ar 3.146892 4.402546 4.622118
Ar 5.673993 4.894489 1.624768
Ar 6.841379 5.369346 1.460082
Ar 5.932213 1.891174 2.013386
Ar 3.174753 1.077894 2.565056
Ar 5.313078 6.682934 4.046524
Ar 5.268802 2.561806 0.792191
Ar 2.854630 4.020230 6.762222
Ar 5.687457 6.726930 0.216285
10
Lattice="10.0 0 0 0 10.0 0 0 0 10.0" Properties=species:S:1:pos:R:3 pbc="T T T" Time=680
Ar 6.821395 3.590505 5.707398
Ar 3.151123 4.407613 4.628779
Ar 5.681621 4.900468 1.626081
Ar 6.850861 5.377168 1.462115
Ar 5.939736 1.893790 2.015185
Ar 3.178161 1.078131 2.568466
Ar 5.320208 6.691816 4.051431
Ar 5.275101 2.564122 0.793056
Ar 2.858439 4.025355 6.770807
Ar 5.695819 6.735626 0.216560
10
Lattice="10.0 0 0 0 10.0 0 0 0 10.0" Properties=species:S:1:pos:R:3 pbc="T T T" Time=681
Ar 6.830909 3.594573 5.715717
Ar 3.155354 4.412679 4.635441
Ar 5.689249 4.906447 1.627394
Ar 6.860343 5.384990 1.464149
Ar 5.947258 1.896407 2.016984
Ar 3.181569 1.078367 2.571876
Ar 5.327339 6.700697 4.056338
Ar 5.281399 2.566439 0.793922
Ar 2.862249 4.030480 6.779392
Ar 5.704181 6.744322 0.216834
10
Lattice="10.0 0 0 0 10.0 0 0 0 10.0" Properties=species:S:1:pos:R:3 pbc="T T T" Time=682
Ar 6.840423 3.598641 5.724036
Ar 3.159585 4.417746 4.642103
Ar 5.696877 4.912426 1.628707
Ar 6.869825 5.392812 1.466182
Ar 5.954780 1.899024 2.018784
Ar 3.184977 1.078604 2.575285
Ar 5.334470 6.709578 4.061245
Ar 5.287698 2.568755 0.794787
Ar 2.866058 4.035605 6.787976
Ar 5.712543 6.753018 0.217109
10
Lattice="10.0 0 0 0 10.0 0 0 0 10.0" Properties=species:S:1:pos:R:3 pbc="T T T" Time=683
Ar 6.849937 3.602708 5.732355
Ar 3.163816 4.422813 4.648764
Ar 5.704505 4.918405 1.630020
Ar 6.879307 5.400634 1.468215
Ar 5.962302 1.901640 2.020583
Ar 3.188386 1.078840 2.578695
Ar 5.341600 6.718460 4.066152
Ar 5.293996 2.571072 0.795652
Ar 2.869867 4.040731 6.796561
Ar 5.720905 6.761714 0.217384
10
Lattice="10.0 0 0 0 10.0 0 0 0 10.0" Properties=species:S:1:pos:R:3 pbc="T T T" Time=684
Ar 6.859451 3.606776 5.740674
Ar 3.168047 4.427879 4.655426
Ar 5.712133 4.924384 1.631333
Ar 6.888790 5.408456 1.470249
Ar 5.969824 1.904257 2.022383
Ar 3.191794 1.079077 2.582104
Ar 5.348731 6.727341 4.071059
Ar 5.300295 2.573388 0.796517
Ar 2.873676 4.045856 6.805146
Ar 5.729267 6.770410 0.217658
10
Lattice="10.0 0 0 0 10.0 0 0 0 10.0" Properties=species:S:1:pos:R:3 pbc="T T T" Time=685
Ar 6.868965 3.610843 5.748993
Ar 3.172279 4.432946 4.662087
Ar 5.719761 4.930363 1.632646
Ar 6.898272 5.416278 1.472282
Ar 5.977346 1.906873 2.024182
Ar 3.195202 1.079313 2.585514
Ar 5.355862 6.736223 4.075966
Ar 5.306593 2.575705 0.797382
Ar 2.877485 4.050981 6.813731
Ar 5.737629 6.779106 0.217933
10
Lattice="10.0 0 0 0 10.0 0 0 0 10.0" Properties=species:S:1:pos:R:3 pbc="T T T" Time=686
Ar 6.878479 3.614911 5.757312
Ar 3.176510 4.438013 4.668749
Ar 5.727389 4.936342 1.633959
Ar 6.907754 5.424100 1.474315
Ar 5.984868 1.909490 2.025982
Ar 3.198610 1.079550 2.588924
Ar 5.362992 6.745104 4.080873
Ar 5.312892 2.578021 0.798248
Ar 2.881295 4.056107 6.822316
Ar 5.745991 6.787802 0.218207
10
Lattice="10.0 0 0 0 10.0 0 0 0 10.0" Properties=species:S:1:pos:R:3 pbc="T T T" Time=687
Ar 6.887993 3.618979 5.765631
Ar 3.180741 4.443079 4.675410
Ar 5.735017 4.942322 1.635272
Ar 6.917236 5.431922 1.476349
Ar 5.992390 1.912106 2.027781
Ar 3.202018 1.079786 2.592333
Ar 5.370123 6.753985 4.085780
Ar 5.319190 2.580337 0.799113
Ar 2.885104 4.061232 6.830901
Ar 5.754352 6.796498 0.218482
10
Lattice="10.0 0 0 0 10.0 0 0 0 10.0" Properties=species:S:1:pos:R:3 pbc="T T T" Time=688
Ar 6.897507 3.623046 5.773950
Ar 3.184972 4.448146 4.682072
Ar 5.742645 4.948301 1.636585
Ar 6.926719 5.439744 1.478382
Ar 5.999912 1.914723 2.029580
Ar 3.205426 1.080023 2.595743
Ar 5.377253 6.762867 4.090687
Ar 5.325489 2.582654 0.799978
Ar 2.888913 4.066357 6.839486
Ar 5.762714 6.805194 0.218757
10
Lattice="10.0 0 0 0 10.0 0 0 0 10.0" Properties=species:S:1:pos:R:3 pbc="T T T" Time=689
Ar 6.907021 3.627114 5.782269
Ar 3.189203 4.453213 4.688733
Ar 5.750273 4.954280 1.637898
Ar 6.936201 5.447566 1.480415
Ar 6.007434 1.917340 2.031380
Ar 3.208834 1.080259 2.599152
Ar 5.384384 6.771748 4.095594
Ar 5.331787 2.584970 0.800843
Ar 2.892722 4.071483 6.848071
Ar 5.771076 6.813890 0.219031
10
Lattice="10.0 0 0 0 10.0 0 0 0 10.0" Properties=species:S:1:pos:R:3 pbc="T T T" Time=690
Ar 6.916536 3.631181 5.790588
Ar 3.193434 4.458279 4.695395
Ar 5.757901 4.960259 1.639211
Ar 6.945683 5.455389 1.482449
Ar 6.014956 1.919956 2.033179
Ar 3.212242 1.080496 2.602562
Ar 5.391515 6.780630 4.100501
Ar 5.338086 2.587287 0.801708
Ar 2.896531 4.076608 6.856656
Ar 5.779438 6.822586 0.219306
10
Lattice="10.0 0 0 0 10.0 0 0 0 10.0" Properties=species:S:1:pos:R:3 pbc="T T T" Time=691
Ar 6.926050 3.635249 5.798907
Ar 3.197665 4.463346 4.702056
Ar 5.765529 4.966238 1.640524
Ar 6.955165 5.463211 1.484482
Ar 6.022479 1.922573 2.034979
Ar 3.215650 1.080732 2.605972
Ar 5.398645 6.789511 4.105408
Ar 5.344384 2.589603 0.802574
Ar 2.900340 4.081733 6.865240
Ar 5.787800 6.831282 0.219581
10
Lattice="10.0 0 0 0 10.0 0 0 0 10.0" Properties=species:S:1:pos:R:3 pbc="T T T" Time=692
Ar 6.935564 3.639317 5.807226
Ar 3.201896 4.468412 4.708718
Ar 5.773157 4.972217 1.641837
Ar 6.964647 5.471033 1.486516
Ar 6.030001 1.925189 2.036778
Ar 3.219058 1.080969 2.609381
Ar 5.405776 6.798392 4.110315
Ar 5.350683 2.591920 0.803439
Ar 2.904150 4.086859 6.873825
Ar 5.796162 6.839978 0.219855
10
Lattice="10.0 0 0 0 10.0 0 0 0 10.0" Properties=species:S:1:pos:R:3 pbc="T T T" Time=693
Ar 6.945078 3.643384 5.815545
Ar 3.206128 4.473479 4.715379
Ar 5.780785 4.978196 1.643150
Ar 6.974130 5.478855 1.488549
Ar 6.037523 1.927806 2.038578
Ar 3.222466 1.081205 2.612791
Ar 5.412907 6.807274 4.115222
Ar 5.356981 2.594236 0.804304
Ar 2.907959 4.091984 6.882410
Ar 5.804524 6.848674 0.220130
10
Lattice="10.0 0 0 0 10.0 0 0 0 10.0" Properties=species:S:1:pos:R:3 pbc="T T T" Time=694
Ar 6.954592 3.647452 5.823864
Ar 3.210359 4.478546 4.722041
Ar 5.788413 4.984175 1.644463
Ar 6.983612 5.486677 1.490582
Ar 6.045045 1.930422 2.040377
Ar 3.225874 1.081441 2.616200
Ar 5.420037 6.816155 4.120129
Ar 5.363280 2.596553 0.805169
Ar 2.911768 4.097109 6.890995
Ar 5.812886 6.857370 0.220404
10
Lattice="10.0 0 0 0 10.0 0 0 0 10.0" Properties=species:S:1:pos:R:3 pbc="T T T" Time=695
Ar 6.964106 3.651519 5.832183
Ar 3.214590 4.483612 4.728703
Ar 5.796041 4.990154 1.645776
Ar 6.993094 5.494499 1.492616
Ar 6.052567 1.933039 2.042176
Ar 3.229283 1.081678 2.619610
Ar 5.427168 6.825036 4.125036
Ar 5.369578 2.598869 0.806034
Ar 2.915577 4.102235 6.899580
Ar 5.821248 6.866066 0.220679
10
Lattice="10.0 0 0 0 10.0 0 0 0 10.0" Properties=species:S:1:pos:R:3 pbc="T T T" Time=696
Ar 6.973620 3.655587 5.840502
Ar 3.218821 4.488679 4.735364
Ar 5.803669 4.996133 1.647089
Ar 7.002576 5.502321 1.494649
Ar 6.060089 1.935656 2.043976
Ar 3.232691 1.081914 2.623020
Ar 5.434298 6.833918 4.129944
Ar 5.375877 2.601186 0.806900
Ar 2.919386 4.107360 6.908165
Ar 5.829610 6.874762 0.220954
10
Lattice="10.0 0 0 0 10.0 0 0 0 10.0" Properties=species:S:1:pos:R:3 pbc="T T T" Time=697
Ar 6.983134 3.659655 5.848821
Ar 3.223052 4.493746 4.742026
Ar 5.811297 5.002112 1.648402
Ar 7.012058 5.510143 1.496682
Ar 6.067611 1.938272 2.045775
Ar 3.236099 1.082151 2.626429
Ar 5.441429 6.842799 4.134851
Ar 5.382175 2.603502 0.807765
Ar 2.923195 4.112485 6.916750
Ar 5.837972 6.883458 0.221228
10
Lattice="10.0 0 0 0 10.0 0 0 0 10.0" Properties=species:S:1:pos:R:3 pbc="T T T" Time=698
Ar 6.992648 3.663722 5.857140
Ar 3.227283 4.498812 4.748687
Ar 5.818925 5.008091 1.649715
Ar 7.021541 5.517965 1.498716
Ar 6.075133 1.940889 2.047575
Ar 3.239507 1.082387 2.629839
Ar 5.448560 6.851681 4.139758
Ar 5.388474 2.605819 0.808630
Ar 2.927005 4.117611 6.925335
Ar 5.846334 6.892154 0.221503
10
Lattice="10.0 0 0 0 10.0 0 0 0 10.0" Properties=species:S:1:pos:R:3 pbc="T T T" Time=699
Ar 7.002162 3.667790 5.865459
Ar 3.231514 4.503879 4.755349
Ar 5.826553 5.014070 1.651028
Ar 7.031023 5.525787 1.500749
Ar 6.082655 1.943505 2.049374
Ar 3.242915 1.082624 2.633248
Ar 5.455690 6.860562 4.144665
Ar 5.394772 2.608135 0.809495
Ar 2.930814 4.122736 6.933920
Ar 5.854696 6.900850 0.221778
10
Lattice="10.0 0 0 0 10.0 0 0 0 10.0" Properties=species:S:1:pos:R:3 pbc="T T T" Time=700
Ar 7.011676 3.671857 5.873778
Ar 3.235746 4.508946 4.762010
Ar 5.834181 5.020050 1.652341
Ar 7.040505 5.533609 1.502782
Ar 6.090177 1.946122 2.051174
Ar 3.246323 1.082860 2.636658
Ar 5.462821 6.869443 4.149572
Ar 5.401071 2.610452 0.810360
Ar 2.934623 4.127861 6.942505
Ar 5.863058 6.909545 0.222052
10
Lattice="10.0 0 0 0 10.0 0 0 0 10.0" Properties=species:S:1:pos:R:3 pbc="T T T" Time=701
Ar 7.021190 3.675925 5.882097
Ar 3.239977 4.514012 4.768672
Ar 5.841809 5.026029 1.653654
Ar 7.049987 5.541431 1.504816
Ar 6.097699 1.948738 2.052973
Ar 3.249731 1.083097 2.640068
Ar 5.469952 6.878325 4.154479
Ar 5.407369 2.612768 0.811226
Ar 2.938432 4.132987 6.951089
Ar 5.871420 6.918241 0.222327
10
Lattice="10.0 0 0 0 10.0 0 0 0 10.0" Properties=species:S:1:pos:R:3 pbc="T T T" Time=702
Ar 7.030704 3.679992 5.890416
Ar 3.244208 4.519079 4.775333
Ar 5.849437 5.032008 1.654967
Ar 7.059469 5.549254 1.506849
Ar 6.105221 1.951355 2.054772
Ar 3.253139 1.083333 2.643477
Ar 5.477082 6.887206 4.159386
Ar 5.413668 2.615085 0.812091
Ar 2.942241 4.138112 6.959674
Ar 5.879782 6.926937 0.222601
10
Lattice="10.0 0 0 0 10.0 0 0 0 10.0" Properties=species:S:1:pos:R:3 pbc="T T T" Time=703
Ar 7.040218 3.684060 5.898735
Ar 3.248439 4.524146 4.781995
Ar 5.857065 5.037987 1.656280
Ar 7.068952 5.557076 1.508882
Ar 6.112744 1.953972 2.056572
Ar 3.256547 1.083570 2.646887
Ar 5.484213 6.896088 4.164293
Ar 5.419966 2.617401 0.812956
Ar 2.946051 4.143237 6.968259
Ar 5.888144 6.935633 0.222876
10
Lattice="10.0 0 0 0 10.0 0 0 0 10.0" Properties=species:S:1:pos:R:3 pbc="T T T" Time=704
Ar 7.049732 3.688128 5.907054
Ar 3.252670 4.529212 4.788656
Ar 5.864693 5.043966 1.657593
Ar 7.078434 5.564898 1.510916
Ar 6.120266 1.956588 2.058371
Ar 3.259955 1.083806 2.650296
Ar 5.491343 6.904969 4.169200
Ar 5.426265 2.619718 0.813821
Ar 2.949860 4.148363 6.976844
Ar 5.896506 6.944329 0.223151
10
Lattice="10.0 0 0 0 10.0 0 0 0 10.0" Properties=species:S:1:pos:R:3 pbc="T T T" Time=705
Ar 7.059246 3.692195 5.915373
Ar 3.256901 4.534279 4.795318
Ar 5.872321 5.049945 1.658906
Ar 7.087916 5.572720 1.512949
Ar 6.127788 1.959205 2.060171
Ar 3.263363 1.084043 2.653706
Ar 5.498474 6.913850 4.174107
Ar 5.432563 2.622034 0.814686
Ar 2.953669 4.153488 6.985429
Ar 5.904868 6.953025 0.223425
10
Lattice="10.0 0 0 0 10.0 0 0 0 10.0" Properties=species:S:1:pos:R:3 pbc="T T T" Time=706
Ar 7.068760 3.696263 5.923692
Ar 3.261132 4.539345 4.801980
Ar 5.879949 5.055924 1.660219
Ar 7.097398 5.580542 1.514982
Ar 6.135310 1.961821 2.061970
Ar 3.266771 1.084279 2.657116
Ar 5.505605 6.922732 4.179014
Ar 5.438862 2.624351 0.815552
Ar 2.957478 4.158613 6.994014
Ar 5.913230 6.961721 0.223700
10
Lattice="10.0 0 0 0 10.0 0 0 0 10.0" Properties=species:S:1:pos:R:3 pbc="T T T" Time=707
Ar 7.078274 3.700330 5.932011
Ar 3.265364 4.544412 4.808641
Ar 5.887577 5.061903 1.661532
Ar 7.106880 5.588364 1.517016
Ar 6.142832 1.964438 2.063770
Ar 3.270180 1.084516 2.660525
Ar 5.512735 6.931613 4.183921
Ar 5.445160 2.626667 0.816417
Ar 2.961287 4.163738 7.002599
Ar 5.921592 6.970417 0.223974
10
Lattice="10.0 0 0 0 10.0 0 0 0 10.0" Properties=species:S:1:pos:R:3 pbc="T T T" Time=708
Ar 7.087788 3.704398 5.940330
Ar 3.269595 4.549479 4.815303
Ar 5.895205 5.067882 1.662845
Ar 7.116363 5.596186 1.519049
Ar 6.150354 1.967054 2.065569
Ar 3.273588 1.084752 2.663935
Ar 5.519866 6.940495 4.188828
Ar 5.451459 2.628984 0.817282
Ar 2.965096 4.168864 7.011184
Ar 5.929954 6.979113 0.224249
10
Lattice="10.0 0 0 0 10.0 0 0 0 10.0" Properties=species:S:1:pos:R:3 pbc="T T T" Time=709
Ar 7.097302 3.708466 5.948649
Ar 3.273826 4.554545 4.821964
Ar 5.902833 5.073861 1.664158
Ar 7.125845 5.604008 1.521083
Ar 6.157876 1.969671 2.067368
Ar 3.276996 1.084989 2.667344
Ar 5.526997 6.949376 4.193735
Ar 5.457757 2.631300 0.818147
Ar 2.968906 4.173989 7.019769
Ar 5.938316 6.987809 0.224524
10
Lattice="10.0 0 0 0 10.0 0 0 0 10.0" Properties=species:S:1:pos:R:3 pbc="T T T" Time=710
Ar 7.106816 3.712533 5.956968
Ar 3.278057 4.559612 4.828626
Ar 5.910461 5.079840 1.665471
Ar 7.135327 5.611830 1.523116
Ar 6.165398 1.972287 2.069168
Ar 3.280404 1.085225 2.670754
Ar 5.534127 6.958257 4.198642
Ar 5.464056 2.633617 0.819012
Ar 2.972715 4.179114 7.028353
Ar 5.946678 6.996505 0.224798
10
Lattice="10.0 0 0 0 10.0 0 0 0 10.0" Properties=species:S:1:pos:R:3 pbc="T T T" Time=711
Ar 7.116330 3.716601 5.965287
Ar 3.282288 4.564679 4.835287
Ar 5.918089 5.085819 1.666784
Ar 7.144809 5.619652 1.525149
Ar 6.172920 1.974904 2.070967
Ar 3.283812 1.085462 2.674164
Ar 5.541258 6.967139 4.203549
Ar 5.470354 2.635933 0.819878
Ar 2.976524 4.184240 7.036938
Ar 5.955040 7.005201 0.225073
10
Lattice="10.0 0 0 0 10.0 0 0 0 10.0" Properties=species:S:1:pos:R:3 pbc="T T T" Time=712
Ar 7.125844 3.720668 5.973606
Ar 3.286519 4.569745 4.841949
Ar 5.925716 5.091798 1.668097
Ar 7.154291 5.627474 1.527183
Ar 6.180442 1.977521 2.072767
Ar 3.287220 1.085698 2.677573
Ar 5.548388 6.976020 4.208456
Ar 5.476653 2.638250 0.820743
Ar 2.980333 4.189365 7.045523
Ar 5.963402 7.013897 0.225348
10
Lattice="10.0 0 0 0 10.0 0 0 0 10.0" Properties=species:S:1:pos:R:3 pbc="T T T" Time=713
Ar 7.135359 3.724736 5.981925
Ar 3.290750 4.574812 4.848610
Ar 5.933344 5.097778 1.669410
Ar 7.163774 5.635296 1.529216
Ar 6.187964 1.980137 2.074566
Ar 3.290628 1.085934 2.680983
Ar 5.555519 6.984902 4.213363
Ar 5.482951 2.640566 0.821608
Ar 2.984142 4.194490 7.054108
Ar 5.971764 7.022593 0.225622
10
Lattice="10.0 0 0 0 10.0 0 0 0 10.0" Properties=species:S:1:pos:R:3 pbc="T T T" Time=714
Ar 7.144873 3.728804 5.990244
Ar 3.294981 4.579879 4.855272
Ar 5.940972 5.103757 1.670723
Ar 7.173256 5.643118 1.531249
Ar 6.195486 1.982754 2.076365
Ar 3.294036 1.086171 2.684392
Ar 5.562650 6.993783 4.218270
Ar 5.489250 2.642883 0.822473
Ar 2.987952 4.199616 7.062693
Ar 5.980125 7.031289 0.225897
10
Lattice="10.0 0 0 0 10.0 0 0 0 10.0" Properties=species:S:1:pos:R:3 pbc="T T T" Time=715
Ar 7.154387 3.732871 5.998563
Ar 3.299213 4.584945 4.861933
Ar 5.948600 5.109736 1.672036
Ar 7.182738 5.650941 1.533283
Ar 6.203009 1.985370 2.078165
Ar 3.297444 1.086407 2.687802
Ar 5.569780 7.002664 4.223177
Ar 5.495548 2.645199 0.823338
Ar 2.991761 4.204741 7.071278
Ar 5.988487 7.039985 0.226171
10
Lattice="10.0 0 0 0 10.0 0 0 0 10.0" Properties=species:S:1:pos:R:3 pbc="T T T" Time=716
Ar 7.163901 3.736939 6.006882
Ar 3.303444 4.590012 4.868595
Ar 5.956228 5.115715 1.673349
Ar 7.192220 5.658763 1.535316
Ar 6.210531 1.987987 2.079964
Ar 3.300852 1.086644 2.691212
Ar 5.576911 7.011546 4.228084
Ar 5.501847 2.647516 0.824204
Ar 2.995570 4.209866 7.079863
Ar 5.996849 7.048681 0.226446
10
Lattice="10.0 0 0 0 10.0 0 0 0 10.0" Properties=species:S:1:pos:R:3 pbc="T T T" Time=717
Ar 7.173415 3.741006 6.015201
Ar 3.307675 4.595078 4.875256
Ar 5.963856 5.121694 1.674662
Ar 7.201702 5.666585 1.537349
Ar 6.218053 1.990603 2.081764
Ar 3.304260 1.086880 2.694621
Ar 5.584042 7.020427 4.232992
Ar 5.508145 2.649832 0.825069
Ar 2.999379 4.214992 7.088448
Ar 6.005211 7.057377 0.226721
10
Lattice="10.0 0 0 0 10.0 0 0 0 10.0" Properties=species:S:1:pos:R:3 pbc="T T T" Time=718
Ar 7.182929 3.745074 6.023520
Ar 3.311906 4.600145 4.881918
Ar 5.971484 5.127673 1.675975
Ar 7.211185 5.674407 1.539383
Ar 6.225575 1.993220 2.083563
Ar 3.307668 1.087117 2.698031
Ar 5.591172 7.029308 4.237899
Ar 5.514444 2.652149 0.825934
Ar 3.003188 4.220117 7.097033
Ar 6.013573 7.066073 0.226995
10
Lattice="10.0 0 0 0 10.0 0 0 0 10.0" Properties=species:S:1:pos:R:3 pbc="T T T" Time=719
Ar 7.192443 3.749142 6.031839
Ar 3.316137 4.605212 4.888580
Ar 5.979112 5.133652 1.677288
Ar 7.220667 5.682229 1.541416
Ar 6.233097 1.995837 2.085363
Ar 3.311077 1.087353 2.701440
Ar 5.598303 7.038190 4.242806
Ar 5.520742 2.654465 0.826799
Ar 3.006997 4.225242 7.105618
Ar 6.021935 7.074769 0.227270
10
Lattice="10.0 0 0 0 10.0 0 0 0 10.0" Properties=species:S:1:pos:R:3 pbc="T T T" Time=720
Ar 7.201957 3.753209 6.040158
Ar 3.320368 4.610278 4.895241
Ar 5.986740 5.139631 1.678601
Ar 7.230149 5.690051 1.543449
Ar 6.240619 1.998453 2.087162
Ar 3.314485 1.087590 2.704850
Ar 5.605434 7.047071 4.247713
Ar 5.527041 2.656782 0.827664
Ar 3.010807 4.230368 7.114202
Ar 6.030297 7.083465 0.227544
10
Lattice="10.0 0 0 0 10.0 0 0 0 10.0" Properties=species:S:1:pos:R:3 pbc="T T T" Time=721
Ar 7.211471 3.757277 6.048477
Ar 3.324599 4.615345 4.901903
Ar 5.994368 5.145610 1.679914
Ar 7.239631 5.697873 1.545483
Ar 6.248141 2.001070 2.088961
Ar 3.317893 1.087826 2.708260
Ar 5.612564 7.055953 4.252620
Ar 5.533339 2.659098 0.828530
Ar 3.014616 4.235493 7.122787
Ar 6.038659 7.092160 0.227819
10
Lattice="10.0 0 0 0 10.0 0 0 0 10.0" Properties=species:S:1:pos:R:3 pbc="T T T" Time=722
Ar 7.220985 3.761344 6.056796
Ar 3.328831 4.620412 4.908564
Ar 6.001996 5.151589 1.681227
Ar 7.249113 5.705695 1.547516
Ar 6.255663 2.003686 2.090761
Ar 3.321301 1.088063 2.711669
Ar 5.619695 7.064834 4.257527
Ar 5.539638 2.661415 0.829395
Ar 3.018425 4.240618 7.131372
Ar 6.047021 7.100856 0.228094
10
Lattice="10.0 0 0 0 10.0 0 0 0 10.0" Properties=species:S:1:pos:R:3 pbc="T T T" Time=723
Ar 7.230499 3.765412 6.065115
Ar 3.333062 4.625478 4.915226
Ar 6.009624 5.157568 1.682540
Ar 7.258596 5.713517 1.549549
Ar 6.263185 2.006303 2.092560
Ar 3.324709 1.088299 2.715079
Ar 5.626825 7.073715 4.262434
Ar 5.545936 2.663731 0.830260
Ar 3.022234 4.245744 7.139957
Ar 6.055383 7.109552 0.228368
10
Lattice="10.0 0 0 0 10.0 0 0 0 10.0" Properties=species:S:1:pos:R:3 pbc="T T T" Time=724
Ar 7.240013 3.769480 6.073434
Ar 3.337293 4.630545 4.921887
Ar 6.017252 5.163547 1.683853
Ar 7.268078 5.721339 1.551583
Ar 6.270707 2.008919 2.094360
Ar 3.328117 1.088536 2.718488
Ar 5.633956 7.082597 4.267341
Ar 5.552235 2.666048 0.831125
Ar 3.026043 4.250869 7.148542
Ar 6.063745 7.118248 0.228643
10
Lattice="10.0 0 0 0 10.0 0 0 0 10.0" Properties=species:S:1:pos:R:3 pbc="T T T" Time=725
Ar 7.249527 3.773547 6.081753
Ar 3.341524 4.635612 4.928549
Ar 6.024880 5.169526 1.685166
Ar 7.277560 5.729161 1.553616
Ar 6.278229 2.011536 2.096159
Ar 3.331525 1.088772 2.721898
Ar 5.641087 7.091478 4.272248
Ar 5.558533 2.668364 0.831990
Ar 3.029852 4.255994 7.157127
Ar 6.072107 7.126944 0.228918
10
Lattice="10.0 0 0 0 10.0 0 0 0 10.0" Properties=species:S:1:pos:R:3 pbc="T T T" Time=726
Ar 7.259041 3.777615 6.090072
Ar 3.345755 4.640678 4.935210
Ar 6.032508 5.175506 1.686479
Ar 7.287042 5.736983 1.555649
Ar 6.285752 2.014153 2.097959
Ar 3.334933 1.089009 2.725308
Ar 5.648217 7.100360 4.277155
Ar 5.564832 2.670681 0.832856
Ar 3.033662 4.261120 7.165712
Ar 6.080469 7.135640 0.229192
10
Lattice="10.0 0 0 0 10.0 0 0 0 10.0" Properties=species:S:1:pos:R:3 pbc="T T T" Time=727
Ar 7.268555 3.781682 6.098391
Ar 3.349986 4.645745 4.941872
Ar 6.040136 5.181485 1.687792
Ar 7.296524 5.744805 1.557683
Ar 6.293274 2.016769 2.099758
Ar 3.338341 1.089245 2.728717
Ar 5.655348 7.109241 4.282062
Ar 5.571130 2.672997 0.833721
Ar 3.037471 4.266245 7.174297
Ar 6.088831 7.144336 0.229467
10
Lattice="10.0 0 0 0 10.0 0 0 0 10.0" Properties=species:S:1:pos:R:3 pbc="T T T" Time=728
Ar 7.278069 3.785750 6.106710
Ar 3.354217 4.650812 4.948533
Ar 6.047764 5.187464 1.689105
Ar 7.306007 5.752628 1.559716
Ar 6.300796 2.019386 2.101557
Ar 3.341749 1.089482 2.732127
Ar 5.662479 7.118122 4.286969
Ar 5.577429 2.675314 0.834586
Ar 3.041280 4.271370 7.182882
Ar 6.097193 7.153032 0.229741
10
Lattice="10.0 0 0 0 10.0 0 0 0 10.0" Properties=species:S:1:pos:R:3 pbc="T T T" Time=729
Ar 7.287583 3.789817 6.115029
Ar 3.358448 4.655878 4.955195
Ar 6.055392 5.193443 1.690418
Ar 7.315489 5.760450 1.561750
Ar 6.308318 2.022002 2.103357
Ar 3.345157 1.089718 2.735536
Ar 5.669609 7.127004 4.291876
Ar 5.583727 2.677630 0.835451
Ar 3.045089 4.276496 7.191466
Ar 6.105555 7.161728 0.230016
10
Lattice="10.0 0 0 0 10.0 0 0 0 10.0" Properties=species:S:1:pos:R:3 pbc="T T T" Time=730
Ar 7.297097 3.793885 6.123348
Ar 3.362680 4.660945 4.961856
Ar 6.063020 5.199422 1.691731
Ar 7.324971 5.768272 1.563783
Ar 6.315840 2.024619 2.105156
Ar 3.348565 1.089955 2.738946
Ar 5.676740 7.135885 4.296783
Ar 5.590026 2.679946 0.836316
Ar 3.048898 4.281621 7.200051
Ar 6.113917 7.170424 0.230291
10
Lattice="10.0 0 0 0 10.0 0 0 0 10.0" Properties=species:S:1:pos:R:3 pbc="T T T" Time=731
Ar 7.306611 3.797953 6.131667
Ar 3.366911 4.666011 4.968518
Ar 6.070648 5.205401 1.693044
Ar 7.334453 5.776094 1.565816
Ar 6.323362 2.027235 2.106956
Ar 3.351974 1.090191 2.742356
Ar 5.683870 7.144767 4.301690
Ar 5.596324 2.682263 0.837182
Ar 3.052708 4.286746 7.208636
Ar 6.122279 7.179120 0.230565
10
Lattice="10.0 0 0 0 10.0 0 0 0 10.0" Properties=species:S:1:pos:R:3 pbc="T T T" Time=732
Ar 7.316125 3.802020 6.139986
Ar 3.371142 4.671078 4.975180
Ar 6.078276 5.211380 1.694357
Ar 7.343935 5.783916 1.567850
Ar 6.330884 2.029852 2.108755
Ar 3.355382 1.090427 2.745765
Ar 5.691001 7.153648 4.306597
Ar 5.602623 2.684579 0.838047
Ar 3.056517 4.291872 7.217221
Ar 6.130641 7.187816 0.230840
10
Lattice="10.0 0 0 0 10.0 0 0 0 10.0" Properties=species:S:1:pos:R:3 pbc="T T T" Time=733
Ar 7.325639 3.806088 6.148305
Ar 3.375373 4.676145 4.981841
Ar 6.085904 5.217359 1.695670
Ar 7.353418 5.791738 1.569883
Ar 6.338406 2.032469 2.110555
Ar 3.358790 1.090664 2.749175
Ar 5.698132 7.162529 4.311504
Ar 5.608921 2.686896 0.838912
Ar 3.060326 4.296997 7.225806
Ar 6.139003 7.196512 0.231115
10
Lattice="10.0 0 0 0 10.0 0 0 0 10.0" Properties=species:S:1:pos:R:3 pbc="T T T" Time=734
Ar 7.335153 3.810155 6.156624
Ar 3.379604 4.681211 4.988503
Ar 6.093532 5.223338 1.696983
Ar 7.362900 5.799560 1.571916
Ar 6.345928 2.035085 2.112354
Ar 3.362198 1.090900 2.752584
Ar 5.705262 7.171411 4.316411
Ar 5.615220 2.689212 0.839777
Ar 3.064135 4.302122 7.234391
Ar 6.147365 7.205208 0.231389
10
Lattice="10.0 0 0 0 10.0 0 0 0 10.0" Properties=species:S:1:pos:R:3 pbc="T T T" Time=735
Ar 7.344668 3.814223 6.164943
Ar 3.383835 4.686278 4.995164
Ar 6.101160 5.229317 1.698296
Ar 7.372382 5.807382 1.573950
Ar 6.353450 2.037702 2.114153
Ar 3.365606 1.091137 2.755994
Ar 5.712393 7.180292 4.321318
Ar 5.621518 2.691529 0.840642
Ar 3.067944 4.307247 7.242976
Ar 6.155727 7.213904 0.231664
10
Lattice="10.0 0 0 0 10.0 0 0 0 10.0" Properties=species:S:1:pos:R:3 pbc="T T T" Time=736
Ar 7.354182 3.818291 6.173262
Ar 3.388066 4.691345 5.001826
Ar 6.108788 5.235296 1.699609
Ar 7.381864 5.815204 1.575983
Ar 6.360972 2.040318 2.115953
Ar 3.369014 1.091373 2.759404
Ar 5.719524 7.189174 4.326225
Ar 5.627817 2.693845 0.841508
Ar 3.071753 4.312373 7.251561
Ar 6.164089 7.222600 0.231938
10
Lattice="10.0 0 0 0 10.0 0 0 0 10.0" Properties=species:S:1:pos:R:3 pbc="T T T" Time=737
Ar 7.363696 3.822358 6.181581
Ar 3.392298 4.696411 5.008487
Ar 6.116416 5.241275 1.700922
Ar 7.391347 5.823026 1.578016
Ar 6.368494 2.042935 2.117752
Ar 3.372422 1.091610 2.762813
Ar 5.726654 7.198055 4.331133
Ar 5.634115 2.696162 0.842373
Ar 3.075563 4.317498 7.260146
Ar 6.172451 7.231296 0.232213
10
Lattice="10.0 0 0 0 10.0 0 0 0 10.0" Properties=species:S:1:pos:R:3 pbc="T T T" Time=738
Ar 7.373210 3.826426 6.189900
Ar 3.396529 4.701478 5.015149
Ar 6.124044 5.247254 1.702235
Ar 7.400829 5.830848 1.580050
Ar 6.376017 2.045551 2.119552
Ar 3.375830 1.091846 2.766223
Ar 5.733785 7.206936 4.336040
Ar 5.640414 2.698478 0.843238
Ar 3.079372 4.322623 7.268731
Ar 6.180813 7.239992 0.232488
10
Lattice="10.0 0 0 0 10.0 0 0 0 10.0" Properties=species:S:1:pos:R:3 pbc="T T T" Time=739
Ar 7.382724 3.830493 6.198219
Ar 3.400760 4.706545 5.021810
Ar 6.131672 5.253234 1.703548
Ar 7.410311 5.838670 1.582083
Ar 6.383539 2.048168 2.121351
Ar 3.379238 1.092083 2.769632
Ar 5.740915 7.215818 4.340947
Ar 5.646712 2.700795 0.844103
Ar 3.083181 4.327749 7.277315
Ar 6.189175 7.248688 0.232762
10
Lattice="10.0 0 0 0 10.0 0 0 0 10.0" Properties=species:S:1:pos:R:3 pbc="T T T" Time=740
Ar 7.392238 3.834561 6.206538
Ar 3.404991 4.711611 5.028472
Ar 6.139300 5.259213 1.704861
Ar 7.419793 5.846492 1.584116
Ar 6.391061 2.050785 2.123151
Ar 3.382646 1.092319 2.773042
Ar 5.748046 7.224699 4.345854
Ar 5.653011 2.703111 0.844969
Ar 3.086990 4.332874 7.285900
Ar 6.197536 7.257384 0.233037
10
Lattice="10.0 0 0 0 10.0 0 0 0 10.0" Properties=species:S:1:pos:R:3 pbc="T T T" Time=741
Ar 7.401752 3.838629 6.214857
Ar 3.409222 4.716678 5.035133
Ar 6.146928 5.265192 1.706174
Ar 7.429275 5.854315 1.586150
Ar 6.398583 2.053401 2.124950
Ar 3.386054 1.092556 2.776452
Ar 5.755177 7.233581 4.350761
Ar 5.659309 2.705428 0.845834
Ar 3.090799 4.337999 7.294485
Ar 6.205898 7.266080 0.233311
10
Lattice="10.0 0 0 0 10.0 0 0 0 10.0" Properties=species:S:1:pos:R:3 pbc="T T T" Time=742
Ar 7.411266 3.842696 6.223176
Ar 3.413453 4.721745 5.041795
Ar 6.154556 5.271171 1.707487
Ar 7.438758 5.862137 1.588183
Ar 6.406105 2.056018 2.126749
Ar 3.389462 1.092792 2.779861
Ar 5.762307 7.242462 4.355668
Ar 5.665608 2.707744 0.846699
Ar 3.094608 4.343125 7.303070
Ar 6.214260 7.274776 0.233586
10
Lattice="10.0 0 0 0 10.0 0 0 0 10.0" Properties=species:S:1:pos:R:3 pbc="T T T" Time=743
Ar 7.420780 3.846764 6.231495
Ar 3.417684 4.726811 5.048457
Ar 6.162184 5.277150 1.708800
Ar 7.448240 5.869959 1.590216
Ar 6.413627 2.058634 2.128549
Ar 3.392871 1.093029 2.783271
Ar 5.769438 7.251343 4.360575
Ar 5.671906 2.710061 0.847564
Ar 3.098418 4.348250 7.311655
Ar 6.222622 7.283471 0.233861
10
Lattice="10.0 0 0 0 10.0 0 0 0 10.0" Properties=species:S:1:pos:R:3 pbc="T T T" Time=744
Ar 7.430294 3.850831 6.239814
Ar 3.421916 4.731878 5.055118
Ar 6.169812 5.283129 1.710113
Ar 7.457722 5.877781 1.592250
Ar 6.421149 2.061251 2.130348
Ar 3.396279 1.093265 2.786680
Ar 5.776569 7.260225 4.365482
Ar 5.678205 2.712377 0.848429
Ar 3.102227 4.353375 7.320240
Ar 6.230984 7.292167 0.234135
10
Lattice="10.0 0 0 0 10.0 0 0 0 10.0" Properties=species:S:1:pos:R:3 pbc="T T T" Time=745
Ar 7.439808 3.854899 6.248133
Ar 3.426147 4.736944 5.061780
Ar 6.177440 5.289108 1.711426
Ar 7.467204 5.885603 1.594283
Ar 6.428671 2.063867 2.132148
Ar 3.399687 1.093502 2.790090
Ar 5.783699 7.269106 4.370389
Ar 5.684503 2.714694 0.849295
Ar 3.106036 4.358501 7.328825
Ar 6.239346 7.300863 0.234410
10
Lattice="10.0 0 0 0 10.0 0 0 0 10.0" Properties=species:S:1:pos:R:3 pbc="T T T" Time=746
Ar 7.449322 3.858967 6.256452
Ar 3.430378 4.742011 5.068441
Ar 6.185068 5.295087 1.712739
Ar 7.476686 5.893425 1.596317
Ar 6.436193 2.066484 2.133947
Ar 3.403095 1.093738 2.793500
Ar 5.790830 7.277987 4.375296
Ar 5.690802 2.717010 0.850160
Ar 3.109845 4.363626 7.337410
Ar 6.247708 7.309559 0.234685
10
Lattice="10.0 0 0 0 10.0 0 0 0 10.0" Properties=species:S:1:pos:R:3 pbc="T T T" Time=747
Ar 7.458836 3.863034 6.264771
Ar 3.434609 4.747078 5.075103
Ar 6.192696 5.301066 1.714052
Ar 7.486169 5.901247 1.598350
Ar 6.443715 2.069101 2.135746
Ar 3.406503 1.093975 2.796909
Ar 5.797960 7.286869 4.380203
Ar 5.697100 2.719327 0.851025
Ar 3.113654 4.368751 7.345995
Ar 6.256070 7.318255 0.234959
10
Lattice="10.0 0 0 0 10.0 0 0 0 10.0" Properties=species:S:1:pos:R:3 pbc="T T T" Time=748
Ar 7.468350 3.867102 6.273090
Ar 3.438840 4.752144 5.081764
Ar 6.200324 5.307045 1.715365
Ar 7.495651 5.909069 1.600383
Ar 6.451237 2.071717 2.137546
Ar 3.409911 1.094211 2.800319
Ar 5.805091 7.295750 4.385110
Ar 5.703399 2.721643 0.851890
Ar 3.117464 4.373877 7.354579
Ar 6.264432 7.326951 0.235234
10
Lattice="10.0 0 0 0 10.0 0 0 0 10.0" Properties=species:S:1:pos:R:3 pbc="T T T" Time=749
Ar 7.477864 3.871169 6.281409
Ar 3.443071 4.757211 5.088426
Ar 6.207952 5.313024 1.716678
Ar 7.505133 5.916891 1.602417
Ar 6.458759 2.074334 2.139345
Ar 3.413319 1.094448 2.803728
Ar 5.812222 7.304632 4.390017
Ar 5.709697 2.723960 0.852755
Ar 3.121273 4.379002 7.363164
Ar 6.272794 7.335647 0.235508
10
Lattice="10.0 0 0 0 10.0 0 0 0 10.0" Properties=species:S:1:pos:R:3 pbc="T T T" Time=750
Ar 7.487378 3.875237 6.289728
Ar 3.447302 4.762278 5.095087
Ar 6.215580 5.319003 1.717991
Ar 7.514615 5.924713 1.604450
Ar 6.466282 2.076950 2.141145
Ar 3.416727 1.094684 2.807138
Ar 5.819352 7.313513 4.394924
Ar 5.715996 2.726276 0.853621
Ar 3.125082 4.384127 7.371749
Ar 6.281156 7.344343 0.235783
10
Lattice="10.0 0 0 0 10.0 0 0 0 10.0" Properties=species:S:1:pos:R:3 pbc="T T T" Time=751
Ar 7.496892 3.879305 6.298047
Ar 3.451533 4.767344 5.101749
Ar 6.223208 5.324982 1.719304
Ar 7.524097 5.932535 1.606483
Ar 6.473804 2.079567 2.142944
Ar 3.420135 1.094920 2.810548
Ar 5.826483 7.322394 4.399831
Ar 5.722294 2.728593 0.854486
Ar 3.128891 4.389253 7.380334
Ar 6.289518 7.353039 0.236058
10
Lattice="10.0 0 0 0 10.0 0 0 0 10.0" Properties=species:S:1:pos:R:3 pbc="T T T" Time=752
Ar 7.506406 3.883372 6.306366
Ar 3.455765 4.772411 5.108410
Ar 6.230836 5.330962 1.720617
Ar 7.533580 5.940357 1.608517
Ar 6.481326 2.082183 2.144744
Ar 3.423543 1.095157 2.813957
Ar 5.833614 7.331276 4.404738
Ar 5.728593 2.730909 0.855351
Ar 3.132700 4.394378 7.388919
Ar 6.297880 7.361735 0.236332
10
Lattice="10.0 0 0 0 10.0 0 0 0 10.0" Properties=species:S:1:pos:R:3 pbc="T T T" Time=753
Ar 7.515920 3.887440 6.314685
Ar 3.459996 4.777478 5.115072
Ar 6.238464 5.336941 1.721930
Ar 7.543062 5.948179 1.610550
Ar 6.488848 2.084800 2.146543
Ar 3.426951 1.095393 2.817367
Ar 5.840744 7.340157 4.409645
Ar 5.734891 2.733226 0.856216
Ar 3.136509 4.399503 7.397504
Ar 6.306242 7.370431 0.236607
10
Lattice="10.0 0 0 0 10.0 0 0 0 10.0" Properties=species:S:1:pos:R:3 pbc="T T T" Time=754
Ar 7.525434 3.891507 6.323004
Ar 3.464227 4.782544 5.121733
Ar 6.246092 5.342920 1.723243
Ar 7.552544 5.956002 1.612583
Ar 6.496370 2.087417 2.148342
Ar 3.430359 1.095630 2.820776
Ar 5.847875 7.349039 4.414552
Ar 5.741190 2.735542 0.857081
Ar 3.140319 4.404629 7.406089
Ar 6.314604 7.379127 0.236881
10
Lattice="10.0 0 0 0 10.0 0 0 0 10.0" Properties=species:S:1:pos:R:3 pbc="T T T" Time=755
Ar 7.534948 3.895575 6.331323
Ar 3.468458 4.787611 5.128395
Ar 6.253720 5.348899 1.724556
Ar 7.562026 5.963824 1.614617
Ar 6.503892 2.090033 2.150142
Ar 3.433768 1.095866 2.824186
Ar 5.855006 7.357920 4.419459
Ar 5.747488 2.737859 0.857947
Ar 3.144128 4.409754 7.414674
Ar 6.322966 7.387823 0.237156
10
Lattice="10.0 0 0 0 10.0 0 0 0 10.0" Properties=species:S:1:pos:R:3 pbc="T T T" Time=756
Ar 7.544462 3.899642 6.339642
Ar 3.472689 4.792678 5.135057
Ar 6.261348 5.354878 1.725869
Ar 7.571508 5.971646 1.616650
Ar 6.511414 2.092650 2.151941
Ar 3.437176 1.096103 2.827596
Ar 5.862136 7.366801 4.424366
Ar 5.753787 2.740175 0.858812
Ar 3.147937 4.414879 7.423259
Ar 6.331328 7.396519 0.237431
10
Lattice="10.0 0 0 0 10.0 0 0 0 10.0" Properties=species:S:1:pos:R:3 pbc="T T T" Time=757
Ar 7.553976 3.903710 6.347961
Ar 3.476920 4.797744 5.141718
Ar 6.268976 5.360857 1.727182
Ar 7.580991 5.979468 1.618683
Ar 6.518936 2.095266 2.153741
Ar 3.440584 1.096339 2.831005
Ar 5.869267 7.375683 4.429273
Ar 5.760085 2.742492 0.859677
Ar 3.151746 4.420005 7.431844
Ar 6.339690 7.405215 0.237705
10
Lattice="10.0 0 0 0 10.0 0 0 0 10.0" Properties=species:S:1:pos:R:3 pbc="T T T" Time=758
Ar 7.563491 3.907778 6.356280
Ar 3.481151 4.802811 5.148380
Ar 6.276604 5.366836 1.728495
Ar 7.590473 5.987290 1.620717
Ar 6.526458 2.097883 2.155540
Ar 3.443992 1.096576 2.834415
Ar 5.876397 7.384564 4.434181
Ar 5.766384 2.744808 0.860542
Ar 3.155555 4.425130 7.440428
Ar 6.348052 7.413911 0.237980
10
Lattice="10.0 0 0 0 10.0 0 0 0 10.0" Properties=species:S:1:pos:R:3 pbc="T T T" Time=759
Ar 7.573005 3.911845 6.364599
Ar 3.485383 4.807877 5.155041
Ar 6.284232 5.372815 1.729808
Ar 7.599955 5.995112 1.622750
Ar 6.533980 2.100499 2.157340
Ar 3.447400 1.096812 2.837824
Ar 5.883528 7.393446 4.439088
Ar 5.772682 2.747125 0.861407
Ar 3.159364 4.430255 7.449013
Ar 6.356414 7.422607 0.238255
10
Lattice="10.0 0 0 0 10.0 0 0 0 10.0" Properties=species:S:1:pos:R:3 pbc="T T T" Time=760
Ar 7.582519 3.915913 6.372918
Ar 3.489614 4.812944 5.161703
Ar 6.291860 5.378794 1.731121
Ar 7.609437 6.002934 1.624783
Ar 6.541502 2.103116 2.159139
Ar 3.450808 1.097049 2.841234
Ar 5.890659 7.402327 4.443995
Ar 5.778981 2.749441 0.862273
Ar 3.163174 4.435380 7.457598
Ar 6.364776 7.431303 0.238529
10
Lattice="10.0 0 0 0 10.0 0 0 0 10.0" Properties=species:S:1:pos:R:3 pbc="T T T" Time=761
Ar 7.592033 3.919980 6.381237
Ar 3.493845 4.818011 5.168364
Ar 6.299488 5.384773 1.732434
Ar 7.618919 6.010756 1.626817
Ar 6.549025 2.105733 2.160938
Ar 3.454216 1.097285 2.844644
Ar 5.897789 7.411208 4.448902
Ar 5.785279 2.751758 0.863138
Ar 3.166983 4.440506 7.466183
Ar 6.373138 7.439999 0.238804
10
Lattice="10.0 0 0 0 10.0 0 0 0 10.0" Properties=species:S:1:pos:R:3 pbc="T T T" Time=762
Ar 7.601547 3.924048 6.389556
Ar 3.498076 4.823077 5.175026
Ar 6.307116 5.390752 1.733747
Ar 7.628402 6.018578 1.628850
Ar 6.556547 2.108349 2.162738
Ar 3.457624 1.097522 2.848053
Ar 5.904920 7.420090 4.453809
Ar 5.791578 2.754074 0.864003
Ar 3.170792 4.445631 7.474768
Ar 6.381500 7.448695 0.239078
10
Lattice="10.0 0 0 0 10.0 0 0 0 10.0" Properties=species:S:1:pos:R:3 pbc="T T T" Time=763
Ar 7.611061 3.928116 6.397875
Ar 3.502307 4.828144 5.181687
Ar 6.314744 5.396731 1.735060
Ar 7.637884 6.026400 1.630884
Ar 6.564069 2.110966 2.164537
Ar 3.461032 1.097758 2.851463
Ar 5.912051 7.428971 4.458716
Ar 5.797876 2.756391 0.864868
Ar 3.174601 4.450756 7.483353
Ar 6.389862 7.457391 0.239353
10
Lattice="10.0 0 0 0 10.0 0 0 0 10.0" Properties=species:S:1:pos:R:3 pbc="T T T" Time=764
Ar 7.620575 3.932183 6.406194
Ar 3.506538 4.833211 5.188349
Ar 6.322372 5.402710 1.736373
Ar 7.647366 6.034222 1.632917
Ar 6.571591 2.113582 2.166337
Ar 3.464440 1.097995 2.854872
Ar 5.919181 7.437853 4.463623
Ar 5.804175 2.758707 0.865733
Ar 3.178410 4.455882 7.491938
Ar 6.398224 7.466086 0.239628
10
Lattice="10.0 0 0 0 10.0 0 0 0 10.0" Properties=species:S:1:pos:R:3 pbc="T T T" Time=765
Ar 7.630089 3.936251 6.414513
Ar 3.510769 4.838277 5.195010
Ar 6.330000 5.408690 1.737686
Ar 7.656848 6.042044 1.634950
Ar 6.579113 2.116199 2.168136
Ar 3.467848 1.098231 2.858282
Ar 5.926312 7.446734 4.468530
Ar 5.810473 2.761024 0.866599
Ar 3.182220 4.461007 7.500523
Ar 6.406586 7.474782 0.239902
10
Lattice="10.0 0 0 0 10.0 0 0 0 10.0" Properties=species:S:1:pos:R:3 pbc="T T T" Time=766
Ar 7.639603 3.940318 6.422832
Ar 3.515000 4.843344 5.201672
Ar 6.337628 5.414669 1.738999
Ar 7.666330 6.049866 1.636984
Ar 6.586635 2.118815 2.169936
Ar 3.471256 1.098468 2.861692
Ar 5.933442 7.455615 4.473437
Ar 5.816772 2.763340 0.867464
Ar 3.186029 4.466132 7.509108
Ar 6.414948 7.483478 0.240177
10
Lattice="10.0 0 0 0 10.0 0 0 0 10.0" Properties=species:S:1:pos:R:3 pbc="T T T" Time=767
Ar 7.649117 3.944386 6.431151
Ar 3.519232 4.848411 5.208334
Ar 6.345256 5.420648 1.740312
Ar 7.675813 6.057689 1.639017
Ar 6.594157 2.121432 2.171735
Ar 3.474665 1.098704 2.865101
Ar 5.940573 7.464497 4.478344
Ar 5.823070 2.765657 0.868329
Ar 3.189838 4.471258 7.517693
Ar 6.423309 7.492174 0.240451
10
Lattice="10.0 0 0 0 10.0 0 0 0 10.0" Properties=species:S:1:pos:R:3 pbc="T T T" Time=768
Ar 7.658631 3.948454 6.439470
Ar 3.523463 4.853477 5.214995
Ar 6.352884 5.426627 1.741625
Ar 7.685295 6.065511 1.641050
Ar 6.601679 2.124049 2.173534
Ar 3.478073 1.098941 2.868511
Ar 5.947704 7.473378 4.483251
Ar 5.829369 2.767973 0.869194
Ar 3.193647 4.476383 7.526277
Ar 6.431671 7.500870 0.240726
10
Lattice="10.0 0 0 0 10.0 0 0 0 10.0" Properties=species:S:1:pos:R:3 pbc="T T T" Time=769
Ar 7.668145 3.952521 6.447789
Ar 3.527694 4.858544 5.221657
Ar 6.360512 5.432606 1.742938
Ar 7.694777 6.073333 1.643084
Ar 6.609201 2.126665 2.175334
Ar 3.481481 1.099177 2.871920
Ar 5.954834 7.482260 4.488158
Ar 5.835667 2.770290 0.870059
Ar 3.197456 4.481508 7.534862
Ar 6.440033 7.509566 0.241001
10
Lattice="10.0 0 0 0 10.0 0 0 0 10.0" Properties=species:S:1:pos:R:3 pbc="T T T" Time=770
Ar 7.677659 3.956589 6.456108
Ar 3.531925 4.863611 5.228318
Ar 6.368140 5.438585 1.744251
Ar 7.704259 6.081155 1.645117
Ar 6.616723 2.129282 2.177133
Ar 3.484889 1.099413 2.875330
Ar 5.961965 7.491141 4.493065
Ar 5.841966 2.772606 0.870925
Ar 3.201265 4.486634 7.543447
Ar 6.448395 7.518262 0.241275
10
Lattice="10.0 0 0 0 10.0 0 0 0 10.0" Properties=species:S:1:pos:R:3 pbc="T T T" Time=771
Ar 7.687173 3.960656 6.464427
Ar 3.536156 4.868677 5.234980
Ar 6.375768 5.444564 1.745564
Ar 7.713741 6.088977 1.647150
Ar 6.624245 2.131898 2.178933
Ar 3.488297 1.099650 2.878740
Ar 5.969096 7.500022 4.497972
Ar 5.848264 2.774923 0.871790
Ar 3.205075 4.491759 7.552032
Ar 6.456757 7.526958 0.241550
10
Lattice="10.0 0 0 0 10.0 0 0 0 10.0" Properties=species:S:1:pos:R:3 pbc="T T T" Time=772
Ar 7.696687 3.964724 6.472746
Ar 3.540387 4.873744 5.241641
Ar 6.383396 5.450543 1.746877
Ar 7.723224 6.096799 1.649184
Ar 6.631767 2.134515 2.180732
Ar 3.491705 1.099886 2.882149
Ar 5.976226 7.508904 4.502879
Ar 5.854563 2.777239 0.872655
Ar 3.208884 4.496884 7.560617
Ar 6.465119 7.535654 0.241825
10
Lattice="10.0 0 0 0 10.0 0 0 0 10.0" Properties=species:S:1:pos:R:3 pbc="T T T" Time=773
Ar 7.706201 3.968792 6.481065
Ar 3.544618 4.878810 5.248303
Ar 6.391023 5.456522 1.748190
Ar 7.732706 6.104621 1.651217
Ar 6.639290 2.137131 2.182532
Ar 3.495113 1.100123 2.885559
Ar 5.983357 7.517785 4.507786
Ar 5.860861 2.779555 0.873520
Ar 3.212693 4.502010 7.569202
Ar 6.473481 7.544350 0.242099
10
Lattice="10.0 0 0 0 10.0 0 0 0 10.0" Properties=species:S:1:pos:R:3 pbc="T T T" Time=774
Ar 7.715715 3.972859 6.489384
Ar 3.548850 4.883877 5.254964
Ar 6.398651 5.462501 1.749503
Ar 7.742188 6.112443 1.653250
Ar 6.646812 2.139748 2.184331
Ar 3.498521 1.100359 2.888968
Ar 5.990487 7.526666 4.512693
Ar 5.867160 2.781872 0.874385
Ar 3.216502 4.507135 7.577787
Ar 6.481843 7.553046 0.242374
10
Lattice="10.0 0 0 0 10.0 0 0 0 10.0" Properties=species:S:1:pos:R:3 pbc="T T T" Time=775
Ar 7.725229 3.976927 6.497703
Ar 3.553081 4.888944 5.261626
Ar 6.406279 5.468480 1.750816
Ar 7.751670 6.120265 1.655284
Ar 6.654334 2.142365 2.186130
Ar 3.501929 1.100596 2.892378
Ar 5.997618 7.535548 4.517600
Ar 5.873458 2.784188 0.875251
Ar 3.220311 4.512260 7.586372
Ar 6.490205 7.561742 0.242648
10
Lattice="10.0 0 0 0 10.0 0 0 0 10.0" Properties=species:S:1:pos:R:3 pbc="T T T" Time=776
Ar 7.734743 3.980994 6.506022
Ar 3.557312 4.894010 5.268287
Ar 6.413907 5.474459 1.752129
Ar 7.761152 6.128087 1.657317
Ar 6.661856 2.144981 2.187930
Ar 3.505337 1.100832 2.895788
Ar 6.004749 7.544429 4.522507
Ar 5.879757 2.786505 0.876116
Ar 3.224121 4.517386 7.594957
Ar 6.498567 7.570438 0.242923
10
Lattice="10.0 0 0 0 10.0 0 0 0 10.0" Properties=species:S:1:pos:R:3 pbc="T T T" Time=777
Ar 7.744257 3.985062 6.514341
Ar 3.561543 4.899077 5.274949
Ar 6.421535 5.480438 1.753442
Ar 7.770635 6.135909 1.659350
Ar 6.669378 2.147598 2.189729
Ar 3.508745 1.101069 2.899197
Ar 6.011879 7.553311 4.527414
Ar 5.886055 2.788821 0.876981
Ar 3.227930 4.522511 7.603541
Ar 6.506929 7.579134 0.243198
10
Lattice="10.0 0 0 0 10.0 0 0 0 10.0" Properties=species:S:1:pos:R:3 pbc="T T T" Time=778
Ar 7.753771 3.989130 6.522660
Ar 3.565774 4.904144 5.281610
Ar 6.429163 5.486418 1.754755
Ar 7.780117 6.143731 1.661384
Ar 6.676900 2.150214 2.191529
Ar 3.512153 1.101305 2.902607
Ar 6.019010 7.562192 4.532321
Ar 5.892354 2.791138 0.877846
Ar 3.231739 4.527636 7.612126
Ar 6.515291 7.587830 0.243472
10
Lattice="10.0 0 0 0 10.0 0 0 0 10.0" Properties=species:S:1:pos:R:3 pbc="T T T" Time=779
Ar 7.763285 3.993197 6.530979
Ar 3.570005 4.909210 5.288272
Ar 6.436791 5.492397 1.756068
Ar 7.789599 6.151553 1.663417
Ar 6.684422 2.152831 2.193328
Ar 3.515562 1.101542 2.906016
Ar 6.026141 7.571073 4.537229
Ar 5.898652 2.793454 0.878711
Ar 3.235548 4.532762 7.620711
Ar 6.523653 7.596526 0.243747
10
Lattice="10.0 0 0 0 10.0 0 0 0 10.0" Properties=species:S:1:pos:R:3 pbc="T T T" Time=780
Ar 7.772800 3.997265 6.539298
Ar 3.574236 4.914277 5.294934
Ar 6.444419 5.498376 1.757381
Ar 7.799081 6.159376 1.665451
Ar 6.691944 2.155447 2.195128
Ar 3.518970 1.101778 2.909426
Ar 6.033271 7.579955 4.542136
Ar 5.904951 2.795771 0.879577
Ar 3.239357 4.537887 7.629296
Ar 6.532015 7.605222 0.244022
10
Lattice="10.0 0 0 0 10.0 0 0 0 10.0" Properties=species:S:1:pos:R:3 pbc="T T T" Time=781
Ar 7.782314 4.001332 6.547617
Ar 3.578468 4.919344 5.301595
Ar 6.452047 5.504355 1.758694
Ar 7.808564 6.167198 1.667484
Ar 6.699466 2.158064 2.196927
Ar 3.522378 1.102015 2.912836
Ar 6.040402 7.588836 4.547043
Ar 5.911249 2.798087 0.880442
Ar 3.243166 4.543012 7.637881
Ar 6.540377 7.613918 0.244296
10
Lattice="10.0 0 0 0 10.0 0 0 0 10.0" Properties=species:S:1:pos:R:3 pbc="T T T" Time=782
Ar 7.791828 4.005400 6.555936
Ar 3.582699 4.924410 5.308257
Ar 6.459675 5.510334 1.760007
Ar 7.818046 6.175020 1.669517
Ar 6.706988 2.160681 2.198726
Ar 3.525786 1.102251 2.916245
Ar 6.047532 7.597718 4.551950
Ar 5.917548 2.800404 0.881307
Ar 3.246976 4.548138 7.646466
Ar 6.548739 7.622614 0.244571
10
Lattice="10.0 0 0 0 10.0 0 0 0 10.0" Properties=species:S:1:pos:R:3 pbc="T T T" Time=783
Ar 7.801342 4.009467 6.564255
Ar 3.586930 4.929477 5.314918
Ar 6.467303 5.516313 1.761320
Ar 7.827528 6.182842 1.671551
Ar 6.714510 2.163297 2.200526
Ar 3.529194 1.102488 2.919655
Ar 6.054663 7.606599 4.556857
Ar 5.923846 2.802720 0.882172
Ar 3.250785 4.553263 7.655051
Ar 6.557101 7.631310 0.244845
10
Lattice="10.0 0 0 0 10.0 0 0 0 10.0" Properties=species:S:1:pos:R:3 pbc="T T T" Time=784
Ar 7.810856 4.013535 6.572574
Ar 3.591161 4.934543 5.321580
Ar 6.474931 5.522292 1.762633
Ar 7.837010 6.190664 1.673584
Ar 6.722032 2.165914 2.202325
Ar 3.532602 1.102724 2.923064
Ar 6.061794 7.615480 4.561764
Ar 5.930145 2.805037 0.883037
Ar 3.254594 4.558388 7.663636
Ar 6.565463 7.640006 0.245120
10
Lattice="10.0 0 0 0 10.0 0 0 0 10.0" Properties=species:S:1:pos:R:3 pbc="T T T" Time=785
Ar 7.820370 4.017603 6.580893
Ar 3.595392 4.939610 5.328241
Ar 6.482559 5.528271 1.763946
Ar 7.846492 6.198486 1.675617
Ar 6.729555 2.168530 2.204125
Ar 3.536010 1.102961 2.926474
Ar 6.068924 7.624362 4.566671
Ar 5.936443 2.807353 0.883903
Ar 3.258403 4.563514 7.672221
Ar 6.573825 7.648702 0.245395
10
Lattice="10.0 0 0 0 10.0 0 0 0 10.0" Properties=species:S:1:pos:R:3 pbc="T T T" Time=786
Ar 7.829884 4.021670 6.589212
Ar 3.599623 4.944677 5.334903
Ar 6.490187 5.534250 1.765259
Ar 7.855975 6.206308 1.677651
Ar 6.737077 2.171147 2.205924
Ar 3.539418 1.103197 2.929884
Ar 6.076055 7.633243 4.571578
Ar 5.942742 2.809670 0.884768
Ar 3.262212 4.568639 7.680806
Ar 6.582187 7.657397 0.245669
10
Lattice="10.0 0 0 0 10.0 0 0 0 10.0" Properties=species:S:1:pos:R:3 pbc="T T T" Time=787
Ar 7.839398 4.025738 6.597531
Ar 3.603854 4.949743 5.341564
Ar 6.497815 5.540229 1.766572
Ar 7.865457 6.214130 1.679684
Ar 6.744599 2.173763 2.207723
Ar 3.542826 1.103434 2.933293
Ar 6.083186 7.642125 4.576485
Ar 5.949040 2.811986 0.885633
Ar 3.266021 4.573764 7.689390
Ar 6.590549 7.666093 0.245944
10
Lattice="10.0 0 0 0 10.0 0 0 0 10.0" Properties=species:S:1:pos:R:3 pbc="T T T" Time=788
Ar 7.848912 4.029805 6.605850
Ar 3.608085 4.954810 5.348226
Ar 6.505443 5.546208 1.767885
Ar 7.874939 6.221952 1.681717
Ar 6.752121 2.176380 2.209523
Ar 3.546234 1.103670 2.936703
Ar 6.090316 7.651006 4.581392
Ar 5.955339 2.814303 0.886498
Ar 3.269831 4.578889 7.697975
Ar 6.598911 7.674789 0.246218
10
Lattice="10.0 0 0 0 10.0 0 0 0 10.0" Properties=species:S:1:pos:R:3 pbc="T T T" Time=789
Ar 7.858426 4.033873 6.614169
Ar 3.612317 4.959877 5.354887
Ar 6.513071 5.552187 1.769198
Ar 7.884421 6.229774 1.683751
Ar 6.759643 2.178997 2.211322
Ar 3.549642 1.103906 2.940112
Ar 6.097447 7.659887 4.586299
Ar 5.961637 2.816619 0.887363
Ar 3.273640 4.584015 7.706560
Ar 6.607273 7.683485 0.246493
10
Lattice="10.0 0 0 0 10.0 0 0 0 10.0" Properties=species:S:1:pos:R:3 pbc="T T T" Time=790
Ar 7.867940 4.037941 6.622488
Ar 3.616548 4.964943 5.361549
Ar 6.520699 5.558166 1.770511
Ar 7.893903 6.237596 1.685784
Ar 6.767165 2.181613 2.213122
Ar 3.553050 1.104143 2.943522
Ar 6.104578 7.668769 4.591206
Ar 5.967936 2.818936 0.888229
Ar 3.277449 4.589140 7.715145
Ar 6.615635 7.692181 0.246768
10
Lattice="10.0 0 0 0 10.0 0 0 0 10.0" Properties=species:S:1:pos:R:3 pbc="T T T" Time=791
Ar 7.877454 4.042008 6.630807
Ar 3.620779 4.970010 5.368211
Ar 6.528327 5.564146 1.771824
Ar 7.903386 6.245418 1.687817
Ar 6.774687 2.184230 2.214921
Ar 3.556459 1.104379 2.946932
Ar 6.111708 7.677650 4.596113
Ar 5.974234 2.821252 0.889094
Ar 3.281258 4.594265 7.723730
Ar 6.623997 7.700877 0.247042
10
Lattice="10.0 0 0 0 10.0 0 0 0 10.0" Properties=species:S:1:pos:R:3 pbc="T T T" Time=792
Ar 7.886968 4.046076 6.639126
Ar 3.625010 4.975077 5.374872
Ar 6.535955 5.570125 1.773137
Ar 7.912868 6.253240 1.689851
Ar 6.782209 2.186846 2.216721
Ar 3.559867 1.104616 2.950341
Ar 6.118839 7.686532 4.601020
Ar 5.980533 2.823569 0.889959
Ar 3.285067 4.599391 7.732315
Ar 6.632359 7.709573 0.247317
10
Lattice="10.0 0 0 0 10.0 0 0 0 10.0" Properties=species:S:1:pos:R:3 pbc="T T T" Time=793
Ar 7.896482 4.050143 6.647445
Ar 3.629241 4.980143 5.381534
Ar 6.543583 5.576104 1.774450
Ar 7.922350 6.261063 1.691884
Ar 6.789731 2.189463 2.218520
Ar 3.563275 1.104852 2.953751
Ar 6.125969 7.695413 4.605927
Ar 5.986831 2.825885 0.890824
Ar 3.288877 4.604516 7.740900
Ar 6.640721 7.718269 0.247592
10
Lattice="10.0 0 0 0 10.0 0 0 0 10.0" Properties=species:S:1:pos:R:3 pbc="T T T" Time=794
Ar 7.905996 4.054211 6.655764
Ar 3.633472 4.985210 5.388195
Ar 6.551211 5.582083 1.775763
Ar 7.931832 6.268885 1.693917
Ar 6.797253 2.192079 2.220319
Ar 3.566683 1.105089 2.957160
Ar 6.133100 7.704294 4.610834
Ar 5.993130 2.828202 0.891689
Ar 3.292686 4.609641 7.749485
Ar 6.649082 7.726965 0.247866
10
Lattice="10.0 0 0 0 10.0 0 0 0 10.0" Properties=species:S:1:pos:R:3 pbc="T T T" Time=795
Ar 7.915510 4.058279 6.664083
Ar 3.637703 4.990277 5.394857
Ar 6.558839 5.588062 1.777076
Ar 7.941314 6.276707 1.695951
Ar 6.804775 2.194696 2.222119
Ar 3.570091 1.105325 2.960570
Ar 6.140231 7.713176 4.615741
Ar 5.999428 2.830518 0.892555
Ar 3.296495 4.614767 7.758070
Ar 6.657444 7.735661 0.248141
10
Lattice="10.0 0 0 0 10.0 0 0 0 10.0" Properties=species:S:1:pos:R:3 pbc="T T T" Time=796
Ar 7.925024 4.062346 6.672402
Ar 3.641935 4.995343 5.401518
Ar 6.566467 5.594041 1.778389
Ar 7.950797 6.284529 1.697984
Ar 6.812298 2.197313 2.223918
Ar 3.573499 1.105562 2.963980
Ar 6.147361 7.722057 4.620648
Ar 6.005727 2.832835 0.893420
Ar 3.300304 4.619892 7.766654
Ar 6.665806 7.744357 0.248415
10
Lattice="10.0 0 0 0 10.0 0 0 0 10.0" Properties=species:S:1:pos:R:3 pbc="T T T" Time=797
Ar 7.934538 4.066414 6.680721
Ar 3.646166 5.000410 5.408180
Ar 6.574095 5.600020 1.779702
Ar 7.960279 6.292351 1.700018
Ar 6.819820 2.199929 2.225718
Ar 3.576907 1.105798 2.967389
Ar 6.154492 7.730938 4.625555
Ar 6.012025 2.835151 0.894285
Ar 3.304113 4.625017 7.775239
Ar 6.674168 7.753053 0.248690
10
Lattice="10.0 0 0 0 10.0 0 0 0 10.0" Properties=species:S:1:pos:R:3 pbc="T T T" Time=798
Ar 7.944052 4.070481 6.689040
Ar 3.650397 5.005476 5.414841
Ar 6.581723 5.605999 1.781015
Ar 7.969761 6.300173 1.702051
Ar 6.827342 2.202546 2.227517
Ar 3.580315 1.106035 2.970799
Ar 6.161623 7.739820 4.630462
Ar 6.018324 2.837468 0.895150
Ar 3.307922 4.630143 7.783824
Ar 6.682530 7.761749 0.248965
10
Lattice="10.0 0 0 0 10.0 0 0 0 10.0" Properties=species:S:1:pos:R:3 pbc="T T T" Time=799
Ar 7.953566 4.074549 6.697359
Ar 3.654628 5.010543 5.421503
Ar 6.589351 5.611978 1.782328
Ar 7.979243 6.307995 1.704084
Ar 6.834864 2.205162 2.229317
Ar 3.583723 1.106271 2.974208
Ar 6.168753 7.748701 4.635369
Ar 6.024622 2.839784 0.896015
Ar 3.311732 4.635268 7.792409
Ar 6.690892 7.770445 0.249239
10
Lattice="10.0 0 0 0 10.0 0 0 0 10.0" Properties=species:S:1:pos:R:3 pbc="T T T" Time=800
Ar 7.963080 4.078617 6.705678
Ar 3.658859 5.015610 5.428164
Ar 6.596979 5.617957 1.783641
Ar 7.988725 6.315817 1.706118
Ar 6.842386 2.207779 2.231116
Ar 3.587131 1.106508 2.977618
Ar 6.175884 7.757583 4.640277
Ar 6.030921 2.842101 0.896881
Ar 3.315541 4.640393 7.800994
Ar 6.699254 7.779141 0.249514
10
Lattice="10.0 0 0 0 10.0 0 0 0 10.0" Properties=species:S:1:pos:R:3 pbc="T T T" Time=801
Ar 7.972594 4.082684 6.713997
Ar 3.663090 5.020676 5.434826
Ar 6.604607 5.623936 1.784954
Ar 7.998208 6.323639 1.708151
Ar 6.849908 2.210395 2.232915
Ar 3.590539 1.106744 2.981028
Ar 6.183014 7.766464 4.645184
Ar 6.037219 2.844417 0.897746
Ar 3.319350 4.645519 7.809579
Ar 6.707616 7.787837 0.249788
10
Lattice="10.0 0 0 0 10.0 0 0 0 10.0" Properties=species:S:1:pos:R:3 pbc="T T T" Time=802
Ar 7.982109 4.086752 6.722316
Ar 3.667321 5.025743 5.441487
Ar 6.612235 5.629915 1.786267
Ar 8.007690 6.331461 1.710184
Ar 6.857430 2.213012 2.234715
Ar 3.593948 1.106981 2.984437
Ar 6.190145 7.775345 4.650091
Ar 6.043518 2.846734 0.898611
Ar 3.323159 4.650644 7.818164
Ar 6.715978 7.796533 0.250063
10
Lattice="10.0 0 0 0 10.0 0 0 0 10.0" Properties=species:S:1:pos:R:3 pbc="T T T" Time=803
Ar 7.991623 4.090819 6.730635
Ar 3.671553 5.030810 5.448149
Ar 6.619863 5.635894 1.787580
Ar 8.017172 6.339283 1.712218
Ar 6.864952 2.215629 2.236514
Ar 3.597356 1.107217 2.987847
Ar 6.197276 7.784227 4.654998
Ar 6.049816 2.849050 0.899476
Ar 3.326968 4.655769 7.826749
Ar 6.724340 7.805229 0.250338
10
Lattice="10.0 0 0 0 10.0 0 0 0 10.0" Properties=species:S:1:pos:R:3 pbc="T T T" Time=804
Ar 8.001137 4.094887 6.738954
Ar 3.675784 5.035876 5.454811
Ar 6.627491 5.641874 1.788893
Ar 8.026654 6.347105 1.714251
Ar 6.872474 2.218245 2.238314
Ar 3.600764 1.107454 2.991256
Ar 6.204406 7.793108 4.659905
Ar 6.056115 2.851367 0.900342
Ar 3.330777 4.660895 7.835334
Ar 6.732702 7.813925 0.250612
10
Lattice="10.0 0 0 0 10.0 0 0 0 10.0" Properties=species:S:1:pos:R:3 pbc="T T T" Time=805
Ar 8.010651 4.098955 6.747273
Ar 3.680015 5.040943 5.461472
Ar 6.635119 5.647853 1.790206
Ar 8.036136 6.354927 1.716284
Ar 6.879996 2.220862 2.240113
Ar 3.604172 1.107690 2.994666
Ar 6.211537 7.801990 4.664812
Ar 6.062413 2.853683 0.901207
Ar 3.334587 4.666020 7.843919
Ar 6.741064 7.822621 0.250887
10
Lattice="10.0 0 0 0 10.0 0 0 0 10.0" Properties=species:S:1:pos:R:3 pbc="T T T" Time=806
Ar 8.020165 4.103022 6.755592
Ar 3.684246 5.046010 5.468134
Ar 6.642747 5.653832 1.791519
Ar 8.045619 6.362750 1.718318
Ar 6.887518 2.223478 2.241913
Ar 3.607580 1.107927 2.998076
Ar 6.218668 7.810871 4.669719
Ar 6.068712 2.856000 0.902072
Ar 3.338396 4.671145 7.852503
Ar 6.749426 7.831317 0.251162
10
Lattice="10.0 0 0 0 10.0 0 0 0 10.0" Properties=species:S:1:pos:R:3 pbc="T T T" Time=807
Ar 8.029679 4.107090 6.763911
Ar 3.688477 5.051076 5.474795
Ar 6.650375 5.659811 1.792832
Ar 8.055101 6.370572 1.720351
Ar 6.895040 2.226095 2.243712
Ar 3.610988 1.108163 3.001485
Ar 6.225798 7.819752 4.674626
Ar 6.075010 2.858316 0.902937
Ar 3.342205 4.676271 7.861088
Ar 6.757788 7.840012 0.251436
10
Lattice="10.0 0 0 0 10.0 0 0 0 10.0" Properties=species:S:1:pos:R:3 pbc="T T T" Time=808
Ar 8.039193 4.111157 6.772230
Ar 3.692708 5.056143 5.481457
Ar 6.658003 5.665790 1.794145
Ar 8.064583 6.378394 1.722384
Ar 6.902563 2.228711 2.245511
Ar 3.614396 1.108399 3.004895
Ar 6.232929 7.828634 4.679533
Ar 6.081309 2.860633 0.903802
Ar 3.346014 4.681396 7.869673
Ar 6.766150 7.848708 0.251711
10
Lattice="10.0 0 0 0 10.0 0 0 0 10.0" Properties=species:S:1:pos:R:3 pbc="T T T" Time=809
Ar 8.048707 4.115225 6.780549
Ar 3.696939 5.061210 5.488118
Ar 6.665631 5.671769 1.795458
Ar 8.074065 6.386216 1.724418
Ar 6.910085 2.231328 2.247311
Ar 3.617804 1.108636 3.008304
Ar 6.240059 7.837515 4.684440
Ar 6.087607 2.862949 0.904668
Ar 3.349823 4.686521 7.878258
Ar 6.774512 7.857404 0.251985
10
Lattice="10.0 0 0 0 10.0 0 0 0 10.0" Properties=species:S:1:pos:R:3 pbc="T T T" Time=810
Ar 8.058221 4.119293 6.788868
Ar 3.701170 5.066276 5.494780
Ar 6.673259 5.677748 1.796771
Ar 8.083547 6.394038 1.726451
Ar 6.917607 2.233945 2.249110
Ar 3.621212 1.108872 3.011714
Ar 6.247190 7.846397 4.689347
Ar 6.093906 2.865266 0.905533
Ar 3.353633 4.691647 7.886843
Ar 6.782874 7.866100 0.252260
10
Lattice="10.0 0 0 0 10.0 0 0 0 10.0" Properties=species:S:1:pos:R:3 pbc="T T T" Time=811
Ar 8.067735 4.123360 6.797187
Ar 3.705402 5.071343 5.501441
Ar 6.680887 5.683727 1.798084
Ar 8.093030 6.401860 1.728484
Ar 6.925129 2.236561 2.250910
Ar 3.624620 1.109109 3.015124
Ar 6.254321 7.855278 4.694254
Ar 6.100204 2.867582 0.906398
Ar 3.357442 4.696772 7.895428
Ar 6.791236 7.874796 0.252535
10
Lattice="10.0 0 0 0 10.0 0 0 0 10.0" Properties=species:S:1:pos:R:3 pbc="T T T" Time=812
Ar 8.077249 4.127428 6.805506
Ar 3.709633 5.076409 5.508103
Ar 6.688515 5.689706 1.799397
Ar 8.102512 6.409682 1.730518
Ar 6.932651 2.239178 2.252709
Ar 3.628028 1.109345 3.018533
Ar 6.261451 7.864159 4.699161
Ar 6.106503 2.869899 0.907263
Ar 3.361251 4.701897 7.904013
Ar 6.799598 7.883492 0.252809
10
Lattice="10.0 0 0 0 10.0 0 0 0 10.0" Properties=species:S:1:pos:R:3 pbc="T T T" Time=813
Ar 8.086763 4.131495 6.813825
Ar 3.713864 5.081476 5.514764
Ar 6.696143 5.695685 1.800710
Ar 8.111994 6.417504 1.732551
Ar 6.940173 2.241794 2.254509
Ar 3.631436 1.109582 3.021943
Ar 6.268582 7.873041 4.704068
Ar 6.112801 2.872215 0.908128
Ar 3.365060 4.707023 7.912598
Ar 6.807960 7.892188 0.253084
10
Lattice="10.0 0 0 0 10.0 0 0 0 10.0" Properties=species:S:1:pos:R:3 pbc="T T T" Time=814
Ar 8.096277 4.135563 6.822144
Ar 3.718095 5.086543 5.521426
Ar 6.703771 5.701664 1.802023
Ar 8.121476 6.425326 1.734585
Ar 6.947695 2.244411 2.256308
Ar 3.634845 1.109818 3.025352
Ar 6.275713 7.881922 4.708975
Ar 6.119100 2.874532 0.908994
Ar 3.368869 4.712148 7.921183
Ar 6.816322 7.900884 0.253359
10
Lattice="10.0 0 0 0 10.0 0 0 0 10.0" Properties=species:S:1:pos:R:3 pbc="T T T" Time=815
Ar 8.105791 4.139630 6.830463
Ar 3.722326 5.091609 5.528088
Ar 6.711399 5.707643 1.803336
Ar 8.130958 6.433148 1.736618
Ar 6.955217 2.247027 2.258107
Ar 3.638253 1.110055 3.028762
Ar 6.282843 7.890804 4.713882
Ar 6.125398 2.876848 0.909859
Ar 3.372678 4.717273 7.929767
Ar 6.824684 7.909580 0.253633
10
Lattice="10.0 0 0 0 10.0 0 0 0 10.0" Properties=species:S:1:pos:R:3 pbc="T T T" Time=816
Ar 8.115305 4.143698 6.838782
Ar 3.726557 5.096676 5.534749
Ar 6.719027 5.713622 1.804649
Ar 8.140441 6.440970 1.738651
Ar 6.962739 2.249644 2.259907
Ar 3.641661 1.110291 3.032172
Ar 6.289974 7.899685 4.718789
Ar 6.131697 2.879164 0.910724
Ar 3.376488 4.722398 7.938352
Ar 6.833046 7.918276 0.253908
10
Lattice="10.0 0 0 0 10.0 0 0 0 10.0" Properties=species:S:1:pos:R:3 pbc="T T T" Time=817
Ar 8.124819 4.147766 6.847101
Ar 3.730788 5.101743 5.541411
Ar 6.726655 5.719602 1.805962
Ar 8.149923 6.448792 1.740685
Ar 6.970261 2.252261 2.261706
Ar 3.645069 1.110528 3.035581
Ar 6.297104 7.908566 4.723696
Ar 6.137995 2.881481 0.911589
Ar 3.380297 4.727524 7.946937
Ar 6.841408 7.926972 0.254182
10
Lattice="10.0 0 0 0 10.0 0 0 0 10.0" Properties=species:S:1:pos:R:3 pbc="T T T" Time=818
Ar 8.134333 4.151833 6.855420
Ar 3.735020 5.106809 5.548072
Ar 6.734283 5.725581 1.807275
Ar 8.159405 6.456614 1.742718
Ar 6.977783 2.254877 2.263506
Ar 3.648477 1.110764 3.038991
Ar 6.304235 7.917448 4.728603
Ar 6.144294 2.883797 0.912454
Ar 3.384106 4.732649 7.955522
Ar 6.849770 7.935668 0.254457
10
Lattice="10.0 0 0 0 10.0 0 0 0 10.0" Properties=species:S:1:pos:R:3 pbc="T T T" Time=819
Ar 8.143847 4.155901 6.863739
Ar 3.739251 5.111876 5.554734
Ar 6.741911 5.731560 1.808588
Ar 8.168887 6.464437 1.744751
Ar 6.985305 2.257494 2.265305
Ar 3.651885 1.111001 3.042400
Ar 6.311366 7.926329 4.733510
Ar 6.150592 2.886114 0.913320
Ar 3.387915 4.737774 7.964107
Ar 6.858132 7.944364 0.254732
10
Lattice="10.0 0 0 0 10.0 0 0 0 10.0" Properties=species:S:1:pos:R:3 pbc="T T T" Time=820
Ar 8.153361 4.159968 6.872058
Ar 3.743482 5.116943 5.561395
Ar 6.749539 5.737539 1.809901
Ar 8.178369 6.472259 1.746785
Ar 6.992828 2.260110 2.267104
Ar 3.655293 1.111237 3.045810
Ar 6.318496 7.935211 4.738417
Ar 6.156891 2.888430 0.914185
Ar 3.391724 4.742900 7.972692
Ar 6.866494 7.953060 0.255006
10
Lattice="10.0 0 0 0 10.0 0 0 0 10.0" Properties=species:S:1:pos:R:3 pbc="T T T" Time=821
Ar 8.162875 4.164036 6.880377
Ar 3.747713 5.122009 5.568057
Ar 6.757167 5.743518 1.811214
Ar 8.187852 6.480081 1.748818
Ar 7.000350 2.262727 2.268904
Ar 3.658701 1.111474 3.049220
Ar 6.325627 7.944092 4.743325
Ar 6.163189 2.890747 0.915050
Ar 3.395533 4.748025 7.981277
Ar 6.874855 7.961756 0.255281
10
Lattice="10.0 0 0 0 10.0 0 0 0 10.0" Properties=species:S:1:pos:R:3 pbc="T T T" Time=822
Ar 8.172389 4.168104 6.888696
Ar 3.751944 5.127076 5.574718
Ar 6.764795 5.749497 1.812527
Ar 8.197334 6.487903 1.750851
Ar 7.007872 2.265343 2.270703
Ar 3.662109 1.111710 3.052629
Ar 6.332758 7.952973 4.748232
Ar 6.169488 2.893063 0.915915
Ar 3.399343 4.753150 7.989862
Ar 6.883217 7.970452 0.255555
10
Lattice="10.0 0 0 0 10.0 0 0 0 10.0" Properties=species:S:1:pos:R:3 pbc="T T T" Time=823
Ar 8.181903 4.172171 6.897015
Ar 3.756175 5.132143 5.581380
Ar 6.772423 5.755476 1.813840
Ar 8.206816 6.495725 1.752885
Ar 7.015394 2.267960 2.272503
Ar 3.665517 1.111947 3.056039
Ar 6.339888 7.961855 4.753139
Ar 6.175786 2.895380 0.916780
Ar 3.403152 4.758276 7.998447
Ar 6.891579 7.979148 0.255830
10
Lattice="10.0 0 0 0 10.0 0 0 0 10.0" Properties=species:S:1:pos:R:3 pbc="T T T" Time=824
Ar 8.191417 4.176239 6.905334
Ar 3.760406 5.137209 5.588041
Ar 6.780051 5.761455 1.815153
Ar 8.216298 6.503547 1.754918
Ar 7.022916 2.270577 2.274302
Ar 3.668925 1.112183 3.059448
Ar 6.347019 7.970736 4.758046
Ar 6.182085 2.897696 0.917646
Ar 3.406961 4.763401 8.007032
Ar 6.899941 7.987844 0.256105
10
Lattice="10.0 0 0 0 10.0 0 0 0 10.0" Properties=species:S:1:pos:R:3 pbc="T T T" Time=825
Ar 8.200932 4.180306 6.913653
Ar 3.764637 5.142276 5.594703
Ar 6.787679 5.767434 1.816466
Ar 8.225781 6.511369 1.756951
Ar 7.030438 2.273193 2.276102
Ar 3.672333 1.112420 3.062858
Ar 6.354150 7.979617 4.762953
Ar 6.188383 2.900013 0.918511
Ar 3.410770 4.768526 8.015616
Ar 6.908303 7.996540 0.256379
10
Lattice="10.0 0 0 0 10.0 0 0 0 10.0" Properties=species:S:1:pos:R:3 pbc="T T T" Time=826
Ar 8.210446 4.184374 6.921972
Ar 3.768869 5.147342 5.601364
Ar 6.795307 5.773413 1.817779
Ar 8.235263 6.519191 1.758985
Ar 7.037960 2.275810 2.277901
Ar 3.675742 1.112656 3.066268
Ar 6.361280 7.988499 4.767860
Ar 6.194682 2.902329 0.919376
Ar 3.414579 4.773652 8.024201
Ar 6.916665 8.005236 0.256654
10
Lattice="10.0 0 0 0 10.0 0 0 0 10.0" Properties=species:S:1:pos:R:3 pbc="T T T" Time=827
Ar 8.219960 4.188442 6.930291
Ar 3.773100 5.152409 5.608026
Ar 6.802935 5.779392 1.819092
Ar 8.244745 6.527013 1.761018
Ar 7.045482 2.278426 2.279700
Ar 3.679150 1.112892 3.069677
Ar 6.368411 7.997380 4.772767
Ar 6.200980 2.904646 0.920241
Ar 3.418389 4.778777 8.032786
Ar 6.925027 8.013932 0.256929
10
Lattice="10.0 0 0 0 10.0 0 0 0 10.0" Properties=species:S:1:pos:R:3 pbc="T T T" Time=828
Ar 8.229474 4.192509 6.938610
Ar 3.777331 5.157476 5.614688
Ar 6.810563 5.785371 1.820405
Ar 8.254227 6.534835 1.763051
Ar 7.053004 2.281043 2.281500
Ar 3.682558 1.113129 3.073087
Ar 6.375541 8.006262 4.777674
Ar 6.207279 2.906962 0.921106
Ar 3.422198 4.783902 8.041371
Ar 6.933389 8.022628 0.257203
10
Lattice="10.0 0 0 0 10.0 0 0 0 10.0" Properties=species:S:1:pos:R:3 pbc="T T T" Time=829
Ar 8.238988 4.196577 6.946929
Ar 3.781562 5.162542 5.621349
Ar 6.818191 5.791350 1.821718
Ar 8.263709 6.542657 1.765085
Ar 7.060526 2.283659 2.283299
Ar 3.685966 1.113365 3.076496
Ar 6.382672 8.015143 4.782581
Ar 6.213577 2.909279 0.921972
Ar 3.426007 4.789028 8.049956
Ar 6.941751 8.031323 0.257478
10
Lattice="10.0 0 0 0 10.0 0 0 0 10.0" Properties=species:S:1:pos:R:3 pbc="T T T" Time=830
Ar 8.248502 4.200644 6.955248
Ar 3.785793 5.167609 5.628011
Ar 6.825819 5.797330 1.823031
Ar 8.273192 6.550479 1.767118
Ar 7.068048 2.286276 2.285099
Ar 3.689374 1.113602 3.079906
Ar 6.389803 8.024024 4.787488
Ar 6.219876 2.911595 0.922837
Ar 3.429816 4.794153 8.058541
Ar 6.950113 8.040019 0.257752
10
Lattice="10.0 0 0 0 10.0 0 0 0 10.0" Properties=species:S:1:pos:R:3 pbc="T T T" Time=831
Ar 8.258016 4.204712 6.963567
Ar 3.790024 5.172676 5.634672
Ar 6.833447 5.803309 1.824344
Ar 8.282674 6.558301 1.769152
Ar 7.075571 2.288893 2.286898
Ar 3.692782 1.113838 3.083316
Ar 6.396933 8.032906 4.792395
Ar 6.226174 2.913912 0.923702
Ar 3.433625 4.799278 8.067126
Ar 6.958475 8.048715 0.258027
10
Lattice="10.0 0 0 0 10.0 0 0 0 10.0" Properties=species:S:1:pos:R:3 pbc="T T T" Time=832
Ar 8.267530 4.208780 6.971886
Ar 3.794255 5.177742 5.641334
Ar 6.841075 5.809288 1.825657
Ar 8.292156 6.566124 1.771185
Ar 7.083093 2.291509 2.288698
Ar 3.696190 1.114075 3.086725
Ar 6.404064 8.041787 4.797302
Ar 6.232473 2.916228 0.924567
Ar 3.437434 4.804404 8.075711
Ar 6.966837 8.057411 0.258302
10
Lattice="10.0 0 0 0 10.0 0 0 0 10.0" Properties=species:S:1:pos:R:3 pbc="T T T" Time=833
Ar 8.277044 4.212847 6.980205
Ar 3.798487 5.182809 5.647995
Ar 6.848703 5.815267 1.826970
Ar 8.301638 6.573946 1.773218
Ar 7.090615 2.294126 2.290497
Ar 3.699598 1.114311 3.090135
Ar 6.411195 8.050669 4.802209
Ar 6.238771 2.918545 0.925432
Ar 3.441244 4.809529 8.084296
Ar 6.975199 8.066107 0.258576
10
Lattice="10.0 0 0 0 10.0 0 0 0 10.0" Properties=species:S:1:pos:R:3 pbc="T T T" Time=834
Ar 8.286558 4.216915 6.988524
Ar 3.802718 5.187876 5.654657
Ar 6.856330 5.821246 1.828283
Ar 8.311120 6.581768 1.775252
Ar 7.098137 2.296742 2.292296
Ar 3.703006 1.114548 3.093544
Ar 6.418325 8.059550 4.807116
Ar 6.245070 2.920861 0.926298
Ar 3.445053 4.814654 8.092880
Ar 6.983561 8.074803 0.258851
10
Lattice="10.0 0 0 0 10.0 0 0 0 10.0" Properties=species:S:1:pos:R:3 pbc="T T T" Time=835
Ar 8.296072 4.220982 6.996843
Ar 3.806949 5.192942 5.661318
Ar 6.863958 5.827225 1.829596
Ar 8.320603 6.589590 1.777285
Ar 7.105659 2.299359 2.294096
Ar 3.706414 1.114784 3.096954
Ar 6.425456 8.068431 4.812023
Ar 6.251368 2.923178 0.927163
Ar 3.448862 4.819780 8.101465
Ar 6.991923 8.083499 0.259125
10
Lattice="10.0 0 0 0 10.0 0 0 0 10.0" Properties=species:S:1:pos:R:3 pbc="T T T" Time=836
Ar 8.305586 4.225050 7.005162
Ar 3.811180 5.198009 5.667980
Ar 6.871586 5.833204 1.830909
Ar 8.330085 6.597412 1.779318
Ar 7.113181 2.301975 2.295895
Ar 3.709822 1.115021 3.100364
Ar 6.432586 8.077313 4.816930
Ar 6.257667 2.925494 0.928028
Ar 3.452671 4.824905 8.110050
Ar 7.000285 8.092195 0.259400
10
Lattice="10.0 0 0 0 10.0 0 0 0 10.0" Properties=species:S:1:pos:R:3 pbc="T T T" Time=837
Ar 8.315100 4.229118 7.013481
Ar 3.815411 5.203076 5.674641
Ar 6.879214 5.839183 1.832222
Ar 8.339567 6.605234 1.781352
Ar 7.120703 2.304592 2.297695
Ar 3.713230 1.115257 3.103773
Ar 6.439717 8.086194 4.821837
Ar 6.263965 2.927811 0.928893
Ar 3.456480 4.830030 8.118635
Ar 7.008647 8.100891 0.259675
10
Lattice="10.0 0 0 0 10.0 0 0 0 10.0" Properties=species:S:1:pos:R:3 pbc="T T T" Time=838
Ar 8.324614 4.233185 7.021800
Ar 3.819642 5.208142 5.681303
Ar 6.886842 5.845162 1.833535
Ar 8.349049 6.613056 1.783385
Ar 7.128225 2.307209 2.299494
Ar 3.716639 1.115494 3.107183
Ar 6.446848 8.095076 4.826744
Ar 6.270264 2.930127 0.929758
Ar 3.460290 4.835156 8.127220
Ar 7.017009 8.109587 0.259949
10
Lattice="10.0 0 0 0 10.0 0 0 0 10.0" Properties=species:S:1:pos:R:3 pbc="T T T" Time=839
Ar 8.334128 4.237253 7.030119
Ar 3.823873 5.213209 5.687965
Ar 6.894470 5.851141 1.834848
Ar 8.358531 6.620878 1.785418
Ar 7.135747 2.309825 2.301294
Ar 3.720047 1.115730 3.110592
Ar 6.453978 8.103957 4.831651
Ar 6.276562 2.932444 0.930624
Ar 3.464099 4.840281 8.135805
Ar 7.025371 8.118283 0.260224
10
Lattice="10.0 0 0 0 10.0 0 0 0 10.0" Properties=species:S:1:pos:R:3 pbc="T T T" Time=840
Ar 8.343642 4.241320 7.038438
Ar 3.828105 5.218275 5.694626
Ar 6.902098 5.857120 1.836161
Ar 8.368014 6.628700 1.787452
Ar 7.143269 2.312442 2.303093
Ar 3.723455 1.115967 3.114002
Ar 6.461109 8.112838 4.836558
Ar 6.282861 2.934760 0.931489
Ar 3.467908 4.845406 8.144390
Ar 7.033733 8.126979 0.260499
10
Lattice="10.0 0 0 0 10.0 0 0 0 10.0" Properties=species:S:1:pos:R:3 pbc="T T T" Time=841
Ar 8.353156 4.245388 7.046757
Ar 3.832336 5.223342 5.701288
Ar 6.909726 5.863099 1.837474
Ar 8.377496 6.636522 1.789485
Ar 7.150791 2.315058 2.304892
Ar 3.726863 1.116203 3.117412
Ar 6.468240 8.121720 4.841465
Ar 6.289159 2.937077 0.932354
Ar 3.471717 4.850531 8.152975
Ar 7.042095 8.135675 0.260773
10
Lattice="10.0 0 0 0 10.0 0 0 0 10.0" Properties=species:S:1:pos:R:3 pbc="T T T" Time=842
Ar 8.362670 4.249455 7.055076
Ar 3.836567 5.228409 5.707949
Ar 6.917354 5.869078 1.838787
Ar 8.386978 6.644344 1.791518
Ar 7.158313 2.317675 2.306692
Ar 3.730271 1.116440 3.120821
Ar 6.475370 8.130601 4.846373
Ar 6.295458 2.939393 0.933219
Ar 3.475526 4.855657 8.161560
Ar 7.050457 8.144371 0.261048
10
Lattice="10.0 0 0 0 10.0 0 0 0 10.0" Properties=species:S:1:pos:R:3 pbc="T T T" Time=843
Ar 8.372184 4.253523 7.063395
Ar 3.840798 5.233475 5.714611
Ar 6.924982 5.875058 1.840100
Ar 8.396460 6.652166 1.793552
Ar 7.165836 2.320291 2.308491
Ar 3.733679 1.116676 3.124231
Ar 6.482501 8.139483 4.851280
Ar 6.301756 2.941710 0.934084
Ar 3.479335 4.860782 8.170145
Ar 7.058819 8.153067 0.261322
10
Lattice="10.0 0 0 0 10.0 0 0 0 10.0" Properties=species:S:1:pos:R:3 pbc="T T T" Time=844
Ar 8.381698 4.257591 7.071714
Ar 3.845029 5.238542 5.721272
Ar 6.932610 5.881037 1.841413
Ar 8.405942 6.659988 1.795585
Ar 7.173358 2.322908 2.310291
Ar 3.737087 1.116913 3.127640
Ar 6.489631 8.148364 4.856187
Ar 6.308055 2.944026 0.934950
Ar 3.483145 4.865907 8.178729
Ar 7.067181 8.161763 0.261597
10
Lattice="10.0 0 0 0 10.0 0 0 0 10.0" Properties=species:S:1:pos:R:3 pbc="T T T" Time=845
Ar 8.391212 4.261658 7.080033
Ar 3.849260 5.243609 5.727934
Ar 6.940238 5.887016 1.842726
Ar 8.415425 6.667811 1.797618
Ar 7.180880 2.325525 2.312090
Ar 3.740495 1.117149 3.131050
Ar 6.496762 8.157245 4.861094
Ar 6.314353 2.946343 0.935815
Ar 3.486954 4.871033 8.187314
Ar 7.075543 8.170459 0.261872
10
Lattice="10.0 0 0 0 10.0 0 0 0 10.0" Properties=species:S:1:pos:R:3 pbc="T T T" Time=846
Ar 8.400726 4.265726 7.088352
Ar 3.853491 5.248675 5.734595
Ar 6.947866 5.892995 1.844039
Ar 8.424907 6.675633 1.799652
Ar 7.188402 2.328141 2.313890
Ar 3.743903 1.117385 3.134460
Ar 6.503893 8.166127 4.866001
Ar 6.320651 2.948659 0.936680
Ar 3.490763 4.876158 8.195899
Ar 7.083905 8.179155 0.262146
10
Lattice="10.0 0 0 0 10.0 0 0 0 10.0" Properties=species:S:1:pos:R:3 pbc="T T T" Time=847
Ar 8.410241 4.269793 7.096671
Ar 3.857722 5.253742 5.741257
Ar 6.955494 5.898974 1.845352
Ar 8.434389 6.683455 1.801685
Ar 7.195924 2.330758 2.315689
Ar 3.747311 1.117622 3.137869
Ar 6.511023 8.175008 4.870908
Ar 6.326950 2.950976 0.937545
Ar 3.494572 4.881283 8.204484
Ar 7.092267 8.187851 0.262421
10
Lattice="10.0 0 0 0 10.0 0 0 0 10.0" Properties=species:S:1:pos:R:3 pbc="T T T" Time=848
Ar 8.419755 4.273861 7.104990
Ar 3.861954 5.258809 5.747918
Ar 6.963122 5.904953 1.846665
Ar 8.443871 6.691277 1.803719
Ar 7.203446 2.333374 2.317488
Ar 3.750719 1.117858 3.141279
Ar 6.518154 8.183889 4.875815
Ar 6.333248 2.953292 0.938410
Ar 3.498381 4.886409 8.213069
Ar 7.100628 8.196547 0.262696
10
Lattice="10.0 0 0 0 10.0 0 0 0 10.0" Properties=species:S:1:pos:R:3 pbc="T T T" Time=849
Ar 8.429269 4.277929 7.113309
Ar 3.866185 5.263875 5.754580
Ar 6.970750 5.910932 1.847978
Ar 8.453353 6.699099 1.805752
Ar 7.210968 2.335991 2.319288
Ar 3.754127 1.118095 3.144688
Ar 6.525285 8.192771 4.880722
Ar 6.339547 2.955609 0.939276
Ar 3.502190 4.891534 8.221654
Ar 7.108990 8.205243 0.262970
10
Lattice="10.0 0 0 0 10.0 0 0 0 10.0" Properties=species:S:1:pos:R:3 pbc="T T T" Time=850
Ar 8.438783 4.281996 7.121628
Ar 3.870416 5.268942 5.761241
Ar 6.978378 5.916911 1.849291
Ar 8.462836 6.706921 1.807785
Ar 7.218490 2.338607 2.321087
Ar 3.757536 1.118331 3.148098
Ar 6.532415 8.201652 4.885629
Ar 6.345845 2.957925 0.940141
Ar 3.506000 4.896659 8.230239
Ar 7.117352 8.213938 0.263245
10
Lattice="10.0 0 0 0 10.0 0 0 0 10.0" Properties=species:S:1:pos:R:3 pbc="T T T" Time=851
Ar 8.448297 4.286064 7.129947
Ar 3.874647 5.274009 5.767903
Ar 6.986006 5.922890 1.850604
Ar 8.472318 6.714743 1.809819
Ar 7.226012 2.341224 2.322887
Ar 3.760944 1.118568 3.151508
Ar 6.539546 8.210534 4.890536
Ar 6.352144 2.960242 0.941006
Ar 3.509809 4.901785 8.238824
Ar 7.125714 8.222634 0.263519
10
Lattice="10.0 0 0 0 10.0 0 0 0 10.0" Properties=species:S:1:pos:R:3 pbc="T T T" Time=852
Ar 8.457811 4.290131 7.138266
Ar 3.878878 5.279075 5.774565
Ar 6.993634 5.928869 1.851917
Ar 8.481800 6.722565 1.811852
Ar 7.233534 2.343841 2.324686
Ar 3.764352 1.118804 3.154917
Ar 6.546676 8.219415 4.895443
Ar 6.358442 2.962558 0.941871
Ar 3.513618 4.906910 8.247409
Ar 7.134076 8.231330 0.263794
10
Lattice="10.0 0 0 0 10.0 0 0 0 10.0" Properties=species:S:1:pos:R:3 pbc="T T T" Time=853
Ar 8.467325 4.294199 7.146585
Ar 3.883109 5.284142 5.781226
Ar 7.001262 5.934848 1.853230
Ar 8.491282 6.730387 1.813885
Ar 7.241056 2.346457 2.326486
Ar 3.767760 1.119041 3.158327
Ar 6.553807 8.228296 4.900350
Ar 6.364741 2.964875 0.942736
Ar 3.517427 4.912035 8.255993
Ar 7.142438 8.240026 0.264069
10
Lattice="10.0 0 0 0 10.0 0 0 0 10.0" Properties=species:S:1:pos:R:3 pbc="T T T" Time=854
Ar 8.476839 4.298267 7.154904
Ar 3.887340 5.289208 5.787888
Ar 7.008890 5.940827 1.854543
Ar 8.500764 6.738209 1.815919
Ar 7.248578 2.349074 2.328285
Ar 3.771168 1.119277 3.161736
Ar 6.560938 8.237178 4.905257
Ar 6.371039 2.967191 0.943602
Ar 3.521236 4.917161 8.264578
Ar 7.150800 8.248722 0.264343
10
Lattice="10.0 0 0 0 10.0 0 0 0 10.0" Properties=species:S:1:pos:R:3 pbc="T T T" Time=855
Ar 8.486353 4.302334 7.163223
Ar 3.891572 5.294275 5.794549
Ar 7.016518 5.946806 1.855856
Ar 8.510247 6.746031 1.817952
Ar 7.256101 2.351690 2.330084
Ar 3.774576 1.119514 3.165146
Ar 6.568068 8.246059 4.910164
Ar 6.377338 2.969508 0.944467
Ar 3.525046 4.922286 8.273163
Ar 7.159162 8.257418 0.264618
10
Lattice="10.0 0 0 0 10.0 0 0 0 10.0" Properties=species:S:1:pos:R:3 pbc="T T T" Time=856
Ar 8.495867 4.306402 7.171542
Ar 3.895803 5.299342 5.801211
Ar 7.024146 5.952786 1.857169
Ar 8.519729 6.753853 1.819985
Ar 7.263623 2.354307 2.331884
Ar 3.777984 1.119750 3.168556
Ar 6.575199 8.254941 4.915071
Ar 6.383636 2.971824 0.945332
Ar 3.528855 4.927411 8.281748
Ar 7.167524 8.266114 0.264892
10
Lattice="10.0 0 0 0 10.0 0 0 0 10.0" Properties=species:S:1:pos:R:3 pbc="T T T" Time=857
Ar 8.505381 4.310469 7.179861
Ar 3.900034 5.304408 5.807872
Ar 7.031774 5.958765 1.858482
Ar 8.529211 6.761675 1.822019
Ar 7.271145 2.356923 2.333683
Ar 3.781392 1.119987 3.171965
Ar 6.582330 8.263822 4.919978
Ar 6.389935 2.974141 0.946197
Ar 3.532664 4.932537 8.290333
Ar 7.175886 8.274810 0.265167
10
Lattice="10.0 0 0 0 10.0 0 0 0 10.0" Properties=species:S:1:pos:R:3 pbc="T T T" Time=858
Ar 8.514895 4.314537 7.188180
Ar 3.904265 5.309475 5.814534
Ar 7.039402 5.964744 1.859795
Ar 8.538693 6.769498 1.824052
Ar 7.278667 2.359540 2.335483
Ar 3.784800 1.120223 3.175375
Ar 6.589460 8.272703 4.924885
Ar 6.396233 2.976457 0.947062
Ar 3.536473 4.937662 8.298918
Ar 7.184248 8.283506 0.265442
10
Lattice="10.0 0 0 0 10.0 0 0 0 10.0" Properties=species:S:1:pos:R:3 pbc="T T T" Time=859
Ar 8.524409 4.318605 7.196499
Ar 3.908496 5.314542 5.821195
Ar 7.047030 5.970723 1.861108
Ar 8.548175 6.777320 1.826085
Ar 7.286189 2.362157 2.337282
Ar 3.788208 1.120460 3.178784
Ar 6.596591 8.281585 4.929792
Ar 6.402532 2.978773 0.947928
Ar 3.540282 4.942787 8.307503
Ar 7.192610 8.292202 0.265716
10
Lattice="10.0 0 0 0 10.0 0 0 0 10.0" Properties=species:S:1:pos:R:3 pbc="T T T" Time=860
Ar 8.533923 4.322672 7.204818
Ar 3.912727 5.319608 5.827857
Ar 7.054658 5.976702 1.862421
Ar 8.557658 6.785142 1.828119
Ar 7.293711 2.364773 2.339081
Ar 3.791616 1.120696 3.182194
Ar 6.603722 8.290466 4.934699
Ar 6.408830 2.981090 0.948793
Ar 3.544091 4.947913 8.316088
Ar 7.200972 8.300898 0.265991
10
Lattice="10.0 0 0 0 10.0 0 0 0 10.0" Properties=species:S:1:pos:R:3 pbc="T T T" Time=861
Ar 8.543437 4.326740 7.213137
Ar 3.916958 5.324675 5.834518
Ar 7.062286 5.982681 1.863734
Ar 8.567140 6.792964 1.830152
Ar 7.301233 2.367390 2.340881
Ar 3.795024 1.120933 3.185604
Ar 6.610852 8.299348 4.939606
Ar 6.415129 2.983406 0.949658
Ar 3.547901 4.953038 8.324673
Ar 7.209334 8.309594 0.266266
10
Lattice="10.0 0 0 0 10.0 0 0 0 10.0" Properties=species:S:1:pos:R:3 pbc="T T T" Time=862
Ar 8.552951 4.330807 7.221456
Ar 3.921189 5.329742 5.841180
Ar 7.069914 5.988660 1.865047
Ar 8.576622 6.800786 1.832185
Ar 7.308755 2.370006 2.342680
Ar 3.798433 1.121169 3.189013
Ar 6.617983 8.308229 4.944513
Ar 6.421427 2.985723 0.950523
Ar 3.551710 4.958163 8.333258
Ar 7.217696 8.318290 0.266540
10
Lattice="10.0 0 0 0 10.0 0 0 0 10.0" Properties=species:S:1:pos:R:3 pbc="T T T" Time=863
Ar 8.562465 4.334875 7.229775
Ar 3.925421 5.334808 5.847841
Ar 7.077542 5.994639 1.866360
Ar 8.586104 6.808608 1.834219
Ar 7.316277 2.372623 2.344480
Ar 3.801841 1.121406 3.192423
Ar 6.625113 8.317110 4.949421
Ar 6.427726 2.988039 0.951389
Ar 3.555519 4.963289 8.341842
Ar 7.226058 8.326986 0.266815
10
Lattice="10.0 0 0 0 10.0 0 0 0 10.0" Properties=species:S:1:pos:R:3 pbc="T T T" Time=864
Ar 8.571979 4.338943 7.238094
Ar 3.929652 5.339875 5.854503
Ar 7.085170 6.000618 1.867673
Ar 8.595586 6.816430 1.836252
Ar 7.323799 2.375239 2.346279
Ar 3.805249 1.121642 3.195832
Ar 6.632244 8.325992 4.954328
Ar 6.434024 2.990356 0.952254
Ar 3.559328 4.968414 8.350427
Ar 7.234420 8.335682 0.267089
10
Lattice="10.0 0 0 0 10.0 0 0 0 10.0" Properties=species:S:1:pos:R:3 pbc="T T T" Time=865
Ar 8.581493 4.343010 7.246413
Ar 3.933883 5.344941 5.861165
Ar 7.092798 6.006597 1.868986
Ar 8.605069 6.824252 1.838285
Ar 7.331321 2.377856 2.348079
Ar 3.808657 1.121878 3.199242
Ar 6.639375 8.334873 4.959235
Ar 6.440323 2.992672 0.953119
Ar 3.563137 4.973539 8.359012
Ar 7.242782 8.344378 0.267364
10
Lattice="10.0 0 0 0 10.0 0 0 0 10.0" Properties=species:S:1:pos:R:3 pbc="T T T" Time=866
Ar 8.591007 4.347078 7.254732
Ar 3.938114 5.350008 5.867826
Ar 7.100426 6.012576 1.870299
Ar 8.614551 6.832074 1.840319
Ar 7.338844 2.380473 2.349878
Ar 3.812065 1.122115 3.202652
Ar 6.646505 8.343755 4.964142
Ar 6.446621 2.994989 0.953984
Ar 3.566946 4.978665 8.367597
Ar 7.251144 8.353074 0.267639
10
Lattice="10.0 0 0 0 10.0 0 0 0 10.0" Properties=species:S:1:pos:R:3 pbc="T T T" Time=867
Ar 8.600521 4.351145 7.263051
Ar 3.942345 5.355075 5.874488
Ar 7.108054 6.018555 1.871612
Ar 8.624033 6.839896 1.842352
Ar 7.346366 2.383089 2.351677
Ar 3.815473 1.122351 3.206061
Ar 6.653636 8.352636 4.969049
Ar 6.452920 2.997305 0.954849
Ar 3.570756 4.983790 8.376182
Ar 7.259506 8.361770 0.267913
10
Lattice="10.0 0 0 0 10.0 0 0 0 10.0" Properties=species:S:1:pos:R:3 pbc="T T T" Time=868
Ar 8.610035 4.355213 7.271370
Ar 3.946576 5.360141 5.881149
Ar 7.115682 6.024534 1.872925
Ar 8.633515 6.847718 1.844386
Ar 7.353888 2.385706 2.353477
Ar 3.818881 1.122588 3.209471
Ar 6.660767 8.361517 4.973956
Ar 6.459218 2.999622 0.955715
Ar 3.574565 4.988915 8.384767
Ar 7.267868 8.370466 0.268188
10
Lattice="10.0 0 0 0 10.0 0 0 0 10.0" Properties=species:S:1:pos:R:3 pbc="T T T" Time=869
Ar 8.619549 4.359280 7.279689
Ar 3.950807 5.365208 5.887811
Ar 7.123310 6.030514 1.874238
Ar 8.642998 6.855540 1.846419
Ar 7.361410 2.388322 2.355276
Ar 3.822289 1.122824 3.212880
Ar 6.667897 8.370399 4.978863
Ar 6.465517 3.001938 0.956580
Ar 3.578374 4.994040 8.393352
Ar 7.276230 8.379162 0.268462
10
Lattice="10.0 0 0 0 10.0 0 0 0 10.0" Properties=species:S:1:pos:R:3 pbc="T T T" Time=870
Ar 8.629064 4.363348 7.288008
Ar 3.955039 5.370275 5.894472
Ar 7.130938 6.036493 1.875551
Ar 8.652480 6.863362 1.848452
Ar 7.368932 2.390939 2.357076
Ar 3.825697 1.123061 3.216290
Ar 6.675028 8.379280 4.983770
Ar 6.471815 3.004255 0.957445
Ar 3.582183 4.999166 8.401937
Ar 7.284592 8.387858 0.268737
10
Lattice="10.0 0 0 0 10.0 0 0 0 10.0" Properties=species:S:1:pos:R:3 pbc="T T T" Time=871
Ar 8.638578 4.367416 7.296327
Ar 3.959270 5.375341 5.901134
Ar 7.138566 6.042472 1.876864
Ar 8.661962 6.871185 1.850486
Ar 7.376454 2.393555 2.358875
Ar 3.829105 1.123297 3.219700
Ar 6.682158 8.388162 4.988677
Ar 6.478114 3.006571 0.958310
Ar 3.585992 5.004291 8.410522
Ar 7.292954 8.396554 0.269012
10
Lattice="10.0 0 0 0 10.0 0 0 0 10.0" Properties=species:S:1:pos:R:3 pbc="T T T" Time=872
Ar 8.648092 4.371483 7.304646
Ar 3.963501 5.380408 5.907795
Ar 7.146194 6.048451 1.878177
Ar 8.671444 6.879007 1.852519
Ar 7.383976 2.396172 2.360675
Ar 3.832513 1.123534 3.223109
Ar 6.689289 8.397043 4.993584
Ar 6.484412 3.008888 0.959175
Ar 3.589802 5.009416 8.419107
Ar 7.301316 8.405249 0.269286
10
Lattice="10.0 0 0 0 10.0 0 0 0 10.0" Properties=species:S:1:pos:R:3 pbc="T T T" Time=873
Ar 8.657606 4.375551 7.312965
Ar 3.967732 5.385475 5.914457
Ar 7.153822 6.054430 1.879490
Ar 8.680926 6.886829 1.854552
Ar 7.391498 2.398789 2.362474
Ar 3.835921 1.123770 3.226519
Ar 6.696420 8.405924 4.998491
Ar 6.490711 3.011204 0.960041
Ar 3.593611 5.014542 8.427691
Ar 7.309678 8.413945 0.269561
10
Lattice="10.0 0 0 0 10.0 0 0 0 10.0" Properties=species:S:1:pos:R:3 pbc="T T T" Time=874
Ar 8.667120 4.379618 7.321284
Ar 3.971963 5.390541 5.921118
Ar 7.161450 6.060409 1.880803
Ar 8.690409 6.894651 1.856586
Ar 7.399020 2.401405 2.364273
Ar 3.839330 1.124007 3.229928
Ar 6.703550 8.414806 5.003398
Ar 6.497009 3.013521 0.960906
Ar 3.597420 5.019667 8.436276
Ar 7.318040 8.422641 0.269836
10
Lattice="10.0 0 0 0 10.0 0 0 0 10.0" Properties=species:S:1:pos:R:3 pbc="T T T" Time=875
Ar 8.676634 4.383686 7.329603
Ar 3.976194 5.395608 5.927780
Ar 7.169078 6.066388 1.882116
Ar 8.699891 6.902473 1.858619
Ar 7.406542 2.404022 2.366073
Ar 3.842738 1.124243 3.233338
Ar 6.710681 8.423687 5.008305
Ar 6.503308 3.015837 0.961771
Ar 3.601229 5.024792 8.444861
Ar 7.326401 8.431337 0.270110
10
Lattice="10.0 0 0 0 10.0 0 0 0 10.0" Properties=species:S:1:pos:R:3 pbc="T T T" Time=876
Ar 8.686148 4.387754 7.337922
Ar 3.980425 5.400675 5.934442
Ar 7.176706 6.072367 1.883429
Ar 8.709373 6.910295 1.860652
Ar 7.414064 2.406638 2.367872
Ar 3.846146 1.124480 3.236748
Ar 6.717812 8.432568 5.013212
Ar 6.509606 3.018154 0.962636
Ar 3.605038 5.029918 8.453446
Ar 7.334763 8.440033 0.270385
10
Lattice="10.0 0 0 0 10.0 0 0 0 10.0" Properties=species:S:1:pos:R:3 pbc="T T T" Time=877
Ar 8.695662 4.391821 7.346241
Ar 3.984657 5.405741 5.941103
Ar 7.184334 6.078346 1.884742
Ar 8.718855 6.918117 1.862686
Ar 7.421586 2.409255 2.369672
Ar 3.849554 1.124716 3.240157
Ar 6.724942 8.441450 5.018119
Ar 6.515905 3.020470 0.963501
Ar 3.608847 5.035043 8.462031
Ar 7.343125 8.448729 0.270659
10
Lattice="10.0 0 0 0 10.0 0 0 0 10.0" Properties=species:S:1:pos:R:3 pbc="T T T" Time=878
Ar 8.705176 4.395889 7.354560
Ar 3.988888 5.410808 5.947765
Ar 7.191962 6.084325 1.886055
Ar 8.728337 6.925939 1.864719
Ar 7.429109 2.411871 2.371471
Ar 3.852962 1.124953 3.243567
Ar 6.732073 8.450331 5.023026
Ar 6.522203 3.022787 0.964367
Ar 3.612657 5.040168 8.470616
Ar 7.351487 8.457425 0.270934
10
Lattice="10.0 0 0 0 10.0 0 0 0 10.0" Properties=species:S:1:pos:R:3 pbc="T T T" Time=879
Ar 8.714690 4.399956 7.362879
Ar 3.993119 5.415874 5.954426
Ar 7.199590 6.090304 1.887368
Ar 8.737820 6.933761 1.866752
Ar 7.436631 2.414488 2.373271
Ar 3.856370 1.125189 3.246976
Ar 6.739203 8.459213 5.027933
Ar 6.528502 3.025103 0.965232
Ar 3.616466 5.045294 8.479201
Ar 7.359849 8.466121 0.271209
10
Lattice="10.0 0 0 0 10.0 0 0 0 10.0" Properties=species:S:1:pos:R:3 pbc="T T T" Time=880
Ar 8.724204 4.404024 7.371198
Ar 3.997350 5.420941 5.961088
Ar 7.207218 6.096283 1.888681
Ar 8.747302 6.941583 1.868786
Ar 7.444153 2.417105 2.375070
Ar 3.859778 1.125426 3.250386
Ar 6.746334 8.468094 5.032840
Ar 6.534800 3.027420 0.966097
Ar 3.620275 5.050419 8.487786
Ar 7.368211 8.474817 0.271483
10
Lattice="10.0 0 0 0 10.0 0 0 0 10.0" Properties=species:S:1:pos:R:3 pbc="T T T" Time=881
Ar 8.733718 4.408092 7.379517
Ar 4.001581 5.426008 5.967749
Ar 7.214846 6.102262 1.889994
Ar 8.756784 6.949405 1.870819
Ar 7.451675 2.419721 2.376869
Ar 3.863186 1.125662 3.253796
Ar 6.753465 8.476975 5.037747
Ar 6.541099 3.029736 0.966962
Ar 3.624084 5.055544 8.496371
Ar 7.376573 8.483513 0.271758
10
Lattice="10.0 0 0 0 10.0 0 0 0 10.0" Properties=species:S:1:pos:R:3 pbc="T T T" Time=882
Ar 8.743232 4.412159 7.387836
Ar 4.005812 5.431074 5.974411
Ar 7.222474 6.108242 1.891307
Ar 8.766266 6.957227 1.872852
Ar 7.459197 2.422338 2.378669
Ar 3.866594 1.125899 3.257205
Ar 6.760595 8.485857 5.042654
Ar 6.547397 3.032053 0.967827
Ar 3.627893 5.060670 8.504955
Ar 7.384935 8.492209 0.272033
10
Lattice="10.0 0 0 0 10.0 0 0 0 10.0" Properties=species:S:1:pos:R:3 pbc="T T T" Time=883
Ar 8.752746 4.416227 7.396155
Ar 4.010043 5.436141 5.981072
Ar 7.230102 6.114221 1.892620
Ar 8.775748 6.965049 1.874886
Ar 7.466719 2.424954 2.380468
Ar 3.870002 1.126135 3.260615
Ar 6.767726 8.494738 5.047562
Ar 6.553696 3.034369 0.968693
Ar 3.631703 5.065795 8.513540
Ar 7.393297 8.500905 0.272307
10
Lattice="10.0 0 0 0 10.0 0 0 0 10.0" Properties=species:S:1:pos:R:3 pbc="T T T" Time=884
Ar 8.762260 4.420294 7.404474
Ar 4.014274 5.441208 5.987734
Ar 7.237730 6.120200 1.893933
Ar 8.785231 6.972872 1.876919
Ar 7.474241 2.427571 2.382268
Ar 3.873410 1.126371 3.264024
Ar 6.774857 8.503620 5.052469
Ar 6.559994 3.036686 0.969558
Ar 3.635512 5.070920 8.522125
Ar 7.401659 8.509601 0.272582
10
Lattice="10.0 0 0 0 10.0 0 0 0 10.0" Properties=species:S:1:pos:R:3 pbc="T T T" Time=885
Ar 8.771774 4.424362 7.412793
Ar 4.018506 5.446274 5.994395
Ar 7.245358 6.126179 1.895246
Ar 8.794713 6.980694 1.878953
Ar 7.481763 2.430187 2.384067
Ar 3.876818 1.126608 3.267434
Ar 6.781987 8.512501 5.057376
Ar 6.566293 3.039002 0.970423
Ar 3.639321 5.076046 8.530710
Ar 7.410021 8.518297 0.272856
10
Lattice="10.0 0 0 0 10.0 0 0 0 10.0" Properties=species:S:1:pos:R:3 pbc="T T T" Time=886
Ar 8.781288 4.428430 7.421112
Ar 4.022737 5.451341 6.001057
Ar 7.252986 6.132158 1.896559
Ar 8.804195 6.988516 1.880986
Ar 7.489285 2.432804 2.385867
Ar 3.880227 1.126844 3.270843
Ar 6.789118 8.521382 5.062283
Ar 6.572591 3.041319 0.971288
Ar 3.643130 5.081171 8.539295
Ar 7.418383 8.526993 0.273131
10
Lattice="10.0 0 0 0 10.0 0 0 0 10.0" Properties=species:S:1:pos:R:3 pbc="T T T" Time=887
Ar 8.790802 4.432497 7.429431
Ar 4.026968 5.456408 6.007718
Ar 7.260614 6.138137 1.897872
Ar 8.813677 6.996338 1.883019
Ar 7.496807 2.435421 2.387666
Ar 3.883635 1.127081 3.274253
Ar 6.796248 8.530264 5.067190
Ar 6.578890 3.043635 0.972153
Ar 3.646939 5.086296 8.547880
Ar 7.426745 8.535689 0.273406
10
Lattice="10.0 0 0 0 10.0 0 0 0 10.0" Properties=species:S:1:pos:R:3 pbc="T T T" Time=888
Ar 8.800316 4.436565 7.437750
Ar 4.031199 5.461474 6.014380
Ar 7.268242 6.144116 1.899185
Ar 8.823159 7.004160 1.885053
Ar 7.504329 2.438037 2.389465
Ar 3.887043 1.127317 3.277663
Ar 6.803379 8.539145 5.072097
Ar 6.585188 3.045952 0.973019
Ar 3.650748 5.091422 8.556465
Ar 7.435107 8.544385 0.273680
10
Lattice="10.0 0 0 0 10.0 0 0 0 10.0" Properties=species:S:1:pos:R:3 pbc="T T T" Time=889
Ar 8.809830 4.440632 7.446069
Ar 4.035430 5.466541 6.021042
Ar 7.275870 6.150095 1.900498
Ar 8.832642 7.011982 1.887086
Ar 7.511851 2.440654 2.391265
Ar 3.890451 1.127554 3.281072
Ar 6.810510 8.548027 5.077004
Ar 6.591487 3.048268 0.973884
Ar 3.654558 5.096547 8.565050
Ar 7.443469 8.553081 0.273955
10
Lattice="10.0 0 0 0 10.0 0 0 0 10.0" Properties=species:S:1:pos:R:3 pbc="T T T" Time=890
Ar 8.819344 4.444700 7.454388
Ar 4.039661 5.471608 6.027703
Ar 7.283498 6.156074 1.901811
Ar 8.842124 7.019804 1.889119
Ar 7.519374 2.443270 2.393064
Ar 3.893859 1.127790 3.284482
Ar 6.817640 8.556908 5.081911
Ar 6.597785 3.050585 0.974749
Ar 3.658367 5.101672 8.573635
Ar 7.451831 8.561777 0.274229
10
Lattice="10.0 0 0 0 10.0 0 0 0 10.0" Properties=species:S:1:pos:R:3 pbc="T T T" Time=891
Ar 8.828858 4.448768 7.462707
Ar 4.043892 5.476674 6.034365
Ar 7.291126 6.162053 1.903124
Ar 8.851606 7.027626 1.891153
Ar 7.526896 2.445887 2.394864
Ar 3.897267 1.128027 3.287891
Ar 6.824771 8.565789 5.086818
Ar 6.604084 3.052901 0.975614
Ar 3.662176 5.106798 8.582220
Ar 7.460193 8.570473 0.274504
10
Lattice="10.0 0 0 0 10.0 0 0 0 10.0" Properties=species:S:1:pos:R:3 pbc="T T T" Time=892
Ar 8.838373 4.452835 7.471026
Ar 4.048124 5.481741 6.041026
Ar 7.298754 6.168032 1.904437
Ar 8.861088 7.035448 1.893186
Ar 7.534418 2.448503 2.396663
Ar 3.900675 1.128263 3.291301
Ar 6.831902 8.574671 5.091725
Ar 6.610382 3.055218 0.976479
Ar 3.665985 5.111923 8.590804
Ar 7.468555 8.579169 0.274779
10
Lattice="10.0 0 0 0 10.0 0 0 0 10.0" Properties=species:S:1:pos:R:3 pbc="T T T" Time=893
Ar 8.847887 4.456903 7.479345
Ar 4.052355 5.486807 6.047688
Ar 7.306382 6.174011 1.905750
Ar 8.870570 7.043270 1.895219
Ar 7.541940 2.451120 2.398462
Ar 3.904083 1.128500 3.294711
Ar 6.839032 8.583552 5.096632
Ar 6.616681 3.057534 0.977345
Ar 3.669794 5.117048 8.599389
Ar 7.476917 8.587864 0.275053
10
Lattice="10.0 0 0 0 10.0 0 0 0 10.0" Properties=species:S:1:pos:R:3 pbc="T T T" Time=894
Ar 8.857401 4.460970 7.487664
Ar 4.056586 5.491874 6.054349
Ar 7.314010 6.179990 1.907063
Ar 8.880053 7.051092 1.897253
Ar 7.549462 2.453736 2.400262
Ar 3.907491 1.128736 3.298120
Ar 6.846163 8.592434 5.101539
Ar 6.622979 3.059851 0.978210
Ar 3.673603 5.122173 8.607974
Ar 7.485279 8.596560 0.275328
10
Lattice="10.0 0 0 0 10.0 0 0 0 10.0" Properties=species:S:1:pos:R:3 pbc="T T T" Time=895
Ar 8.866915 4.465038 7.495983
Ar 4.060817 5.496941 6.061011
Ar 7.321637 6.185970 1.908376
Ar 8.889535 7.058914 1.899286
Ar 7.556984 2.456353 2.402061
Ar 3.910899 1.128973 3.301530
Ar 6.853294 8.601315 5.106446
Ar 6.629278 3.062167 0.979075
Ar 3.677413 5.127299 8.616559
Ar 7.493641 8.605256 0.275603
10
Lattice="10.0 0 0 0 10.0 0 0 0 10.0" Properties=species:S:1:pos:R:3 pbc="T T T" Time=896
Ar 8.876429 4.469105 7.504302
Ar 4.065048 5.502007 6.067672
Ar 7.329265 6.191949 1.909689
Ar 8.899017 7.066736 1.901319
Ar 7.564506 2.458970 2.403861
Ar 3.914307 1.129209 3.304939
Ar 6.860424 8.610196 5.111353
Ar 6.635576 3.064484 0.979940
Ar 3.681222 5.132424 8.625144
Ar 7.502003 8.613952 0.275877
10
Lattice="10.0 0 0 0 10.0 0 0 0 10.0" Properties=species:S:1:pos:R:3 pbc="T T T" Time=897
Ar 8.885943 4.473173 7.512621
Ar 4.069279 5.507074 6.074334
Ar 7.336893 6.197928 1.911002
Ar 8.908499 7.074559 1.903353
Ar 7.572028 2.461586 2.405660
Ar 3.917715 1.129446 3.308349
Ar 6.867555 8.619078 5.116260
Ar 6.641875 3.066800 0.980805
Ar 3.685031 5.137549 8.633729
Ar 7.510365 8.622648 0.276152
10
Lattice="10.0 0 0 0 10.0 0 0 0 10.0" Properties=species:S:1:pos:R:3 pbc="T T T" Time=898
Ar 8.895457 4.477241 7.520940
Ar 4.073510 5.512141 6.080995
Ar 7.344521 6.203907 1.912315
Ar 8.917981 7.082381 1.905386
Ar 7.579550 2.464203 2.407460
Ar 3.921124 1.129682 3.311759
Ar 6.874685 8.627959 5.121167
Ar 6.648173 3.069117 0.981671
Ar 3.688840 5.142675 8.642314
Ar 7.518727 8.631344 0.276426
10
Lattice="10.0 0 0 0 10.0 0 0 0 10.0" Properties=species:S:1:pos:R:3 pbc="T T T" Time=899
Ar 8.904971 4.481308 7.529259
Ar 4.077742 5.517207 6.087657
Ar 7.352149 6.209886 1.913628
Ar 8.927464 7.090203 1.907419
Ar 7.587072 2.466819 2.409259
Ar 3.924532 1.129919 3.315168
Ar 6.881816 8.636840 5.126074
Ar 6.654472 3.071433 0.982536
Ar 3.692649 5.147800 8.650899
Ar 7.527089 8.640040 0.276701
10
Lattice="10.0 0 0 0 10.0 0 0 0 10.0" Properties=species:S:1:pos:R:3 pbc="T T T" Time=900
Ar 8.914485 4.485376 7.537578
Ar 4.081973 5.522274 6.094319
Ar 7.359777 6.215865 1.914941
Ar 8.936946 7.098025 1.909453
Ar 7.594594 2.469436 2.411058
Ar 3.927940 1.130155 3.318578
Ar 6.888947 8.645722 5.130981
Ar 6.660770 3.073750 0.983401
Ar 3.696459 5.152925 8.659484
Ar 7.535451 8.648736 0.276976
10
Lattice="10.0 0 0 0 10.0 0 0 0 10.0" Properties=species:S:1:pos:R:3 pbc="T T T" Time=901
Ar 8.923999 4.489443 7.545897
Ar 4.086204 5.527341 6.100980
Ar 7.367405 6.221844 1.916254
Ar 8.946428 7.105847 1.911486
Ar 7.602117 2.472052 2.412858
Ar 3.931348 1.130392 3.321987
Ar 6.896077 8.654603 5.135888
Ar 6.667069 3.076066 0.984266
Ar 3.700268 5.158051 8.668068
Ar 7.543813 8.657432 0.277250
10
Lattice="10.0 0 0 0 10.0 0 0 0 10.0" Properties=species:S:1:pos:R:3 pbc="T T T" Time=902
Ar 8.933513 4.493511 7.554216
Ar 4.090435 5.532407 6.107642
Ar 7.375033 6.227823 1.917567
Ar 8.955910 7.113669 1.913520
Ar 7.609639 2.474669 2.414657
Ar 3.934756 1.130628 3.325397
Ar 6.903208 8.663485 5.140795
Ar 6.673367 3.078382 0.985131
Ar 3.704077 5.163176 8.676653
Ar 7.552174 8.666128 0.277525
10
Lattice="10.0 0 0 0 10.0 0 0 0 10.0" Properties=species:S:1:pos:R:3 pbc="T T T" Time=903
Ar 8.943027 4.497579 7.562535
Ar 4.094666 5.537474 6.114303
Ar 7.382661 6.233802 1.918880
Ar 8.965392 7.121491 1.915553
Ar 7.617161 2.477286 2.416457
Ar 3.938164 1.130864 3.328807
Ar 6.910339 8.672366 5.145702
Ar 6.679666 3.080699 0.985997
Ar 3.707886 5.168301 8.685238
Ar 7.560536 8.674824 0.277799
10
Lattice="10.0 0 0 0 10.0 0 0 0 10.0" Properties=species:S:1:pos:R:3 pbc="T T T" Time=904
Ar 8.952541 4.501646 7.570854
Ar 4.098897 5.542541 6.120965
Ar 7.390289 6.239781 1.920193
Ar 8.974875 7.129313 1.917586
Ar 7.624683 2.479902 2.418256
Ar 3.941572 1.131101 3.332216
Ar 6.917469 8.681247 5.150610
Ar 6.685964 3.083015 0.986862
Ar 3.711695 5.173427 8.693823
Ar 7.568898 8.683520 0.278074
10
Lattice="10.0 0 0 0 10.0 0 0 0 10.0" Properties=species:S:1:pos:R:3 pbc="T T T" Time=905
Ar 8.962055 4.505714 7.579173
Ar 4.103128 5.547607 6.127626
Ar 7.397917 6.245760 1.921506
Ar 8.984357 7.137135 1.919620
Ar 7.632205 2.482519 2.420056
Ar 3.944980 1.131337 3.335626
Ar 6.924600 8.690129 5.155517
Ar 6.692263 3.085332 0.987727
Ar 3.715504 5.178552 8.702408
Ar 7.577260 8.692216 0.278349
10
Lattice="10.0 0 0 0 10.0 0 0 0 10.0" Properties=species:S:1:pos:R:3 pbc="T T T" Time=906
Ar 8.971569 4.509781 7.587492
Ar 4.107359 5.552674 6.134288
Ar 7.405545 6.251739 1.922819
Ar 8.993839 7.144957 1.921653
Ar 7.639727 2.485135 2.421855
Ar 3.948388 1.131574 3.339035
Ar 6.931730 8.699010 5.160424
Ar 6.698561 3.087648 0.988592
Ar 3.719314 5.183677 8.710993
Ar 7.585622 8.700912 0.278623
10
Lattice="10.0 0 0 0 10.0 0 0 0 10.0" Properties=species:S:1:pos:R:3 pbc="T T T" Time=907
Ar 8.981083 4.513849 7.595811
Ar 4.111591 5.557740 6.140949
Ar 7.413173 6.257718 1.924132
Ar 9.003321 7.152779 1.923686
Ar 7.647249 2.487752 2.423654
Ar 3.951796 1.131810 3.342445
Ar 6.938861 8.707892 5.165331
Ar 6.704860 3.089965 0.989457
Ar 3.723123 5.188803 8.719578
Ar 7.593984 8.709608 0.278898
10
Lattice="10.0 0 0 0 10.0 0 0 0 10.0" Properties=species:S:1:pos:R:3 pbc="T T T" Time=908
Ar 8.990597 4.517917 7.604130
Ar 4.115822 5.562807 6.147611
Ar 7.420801 6.263698 1.925445
Ar 9.012803 7.160601 1.925720
Ar 7.654771 2.490368 2.425454
Ar 3.955204 1.132047 3.345855
Ar 6.945992 8.716773 5.170238
Ar 6.711158 3.092281 0.990323
Ar 3.726932 5.193928 8.728163
Ar 7.602346 8.718304 0.279173
10
Lattice="10.0 0 0 0 10.0 0 0 0 10.0" Properties=species:S:1:pos:R:3 pbc="T T T" Time=909
Ar 9.000111 4.521984 7.612449
Ar 4.120053 5.567874 6.154272
Ar 7.428429 6.269677 1.926758
Ar 9.022286 7.168423 1.927753
Ar 7.662293 2.492985 2.427253
Ar 3.958613 1.132283 3.349264
Ar 6.953122 8.725654 5.175145
Ar 6.717457 3.094598 0.991188
Ar 3.730741 5.199053 8.736748
Ar 7.610708 8.727000 0.279447
10
Lattice="10.0 0 0 0 10.0 0 0 0 10.0" Properties=species:S:1:pos:R:3 pbc="T T T" Time=910
Ar 9.009625 4.526052 7.620768
Ar 4.124284 5.572940 6.160934
Ar 7.436057 6.275656 1.928071
Ar 9.031768 7.176246 1.929786
Ar 7.669815 2.495602 2.429053
Ar 3.962021 1.132520 3.352674
Ar 6.960253 8.734536 5.180052
Ar 6.723755 3.096914 0.992053
Ar 3.734550 5.204179 8.745333
Ar 7.619070 8.735696 0.279722
10
Lattice="10.0 0 0 0 10.0 0 0 0 10.0" Properties=species:S:1:pos:R:3 pbc="T T T" Time=911
Ar 9.019139 4.530119 7.629087
Ar 4.128515 5.578007 6.167595
Ar 7.443685 6.281635 1.929384
Ar 9.041250 7.184068 1.931820
Ar 7.677337 2.498218 2.430852
Ar 3.965429 1.132756 3.356083
Ar 6.967384 8.743417 5.184959
Ar 6.730054 3.099231 0.992918
Ar 3.738359 5.209304 8.753917
Ar 7.627432 8.744392 0.279996
10
Lattice="10.0 0 0 0 10.0 0 0 0 10.0" Properties=species:S:1:pos:R:3 pbc="T T T" Time=912
Ar 9.028653 4.534187 7.637406
Ar 4.132746 5.583074 6.174257
Ar 7.451313 6.287614 1.930697
Ar 9.050732 7.191890 1.933853
Ar 7.684859 2.500835 2.432652
Ar 3.968837 1.132993 3.359493
Ar 6.974514 8.752299 5.189866
Ar 6.736352 3.101547 0.993783
Ar 3.742169 5.214429 8.762502
Ar 7.635794 8.753088 0.280271
10
Lattice="10.0 0 0 0 10.0 0 0 0 10.0" Properties=species:S:1:pos:R:3 pbc="T T T" Time=913
Ar 9.038167 4.538255 7.645725
Ar 4.136977 5.588140 6.180919
Ar 7.458941 6.293593 1.932010
Ar 9.060214 7.199712 1.935886
Ar 7.692382 2.503451 2.434451
Ar 3.972245 1.133229 3.362903
Ar 6.981645 8.761180 5.194773
Ar 6.742651 3.103864 0.994649
Ar 3.745978 5.219555 8.771087
Ar 7.644156 8.761784 0.280546
10
Lattice="10.0 0 0 0 10.0 0 0 0 10.0" Properties=species:S:1:pos:R:3 pbc="T T T" Time=914
Ar 9.047682 4.542322 7.654044
Ar 4.141209 5.593207 6.187580
Ar 7.466569 6.299572 1.933323
Ar 9.069697 7.207534 1.937920
Ar 7.699904 2.506068 2.436250
Ar 3.975653 1.133466 3.366312
Ar 6.988775 8.770061 5.199680
Ar 6.748949 3.106180 0.995514
Ar 3.749787 5.224680 8.779672
Ar 7.652518 8.770480 0.280820
10
Lattice="10.0 0 0 0 10.0 0 0 0 10.0" Properties=species:S:1:pos:R:3 pbc="T T T" Time=915
Ar 9.057196 4.546390 7.662363
Ar 4.145440 5.598274 6.194242
Ar 7.474197 6.305551 1.934636
Ar 9.079179 7.215356 1.939953
Ar 7.707426 2.508684 2.438050
Ar 3.979061 1.133702 3.369722
Ar 6.995906 8.778943 5.204587
Ar 6.755248 3.108497 0.996379
Ar 3.753596 5.229805 8.788257
Ar 7.660880 8.779175 0.281095
10
Lattice="10.0 0 0 0 10.0 0 0 0 10.0" Properties=species:S:1:pos:R:3 pbc="T T T" Time=916
Ar 9.066710 4.550457 7.670682
Ar 4.149671 5.603340 6.200903
Ar 7.481825 6.311530 1.935949
Ar 9.088661 7.223178 1.941986
Ar 7.714948 2.511301 2.439849
Ar 3.982469 1.133939 3.373131
Ar 7.003037 8.787824 5.209494
Ar 6.761546 3.110813 0.997244
Ar 3.757405 5.234931 8.796842
Ar 7.669242 8.787871 0.281370
10
Lattice="10.0 0 0 0 10.0 0 0 0 10.0" Properties=species:S:1:pos:R:3 pbc="T T T" Time=917
Ar 9.076224 4.554525 7.679001
Ar 4.153902 5.608407 6.207565
Ar 7.489453 6.317509 1.937262
Ar 9.098143 7.231000 1.944020
Ar 7.722470 2.513918 2.441649
Ar 3.985877 1.134175 3.376541
Ar 7.010167 8.796706 5.214401
Ar 6.767845 3.113130 0.998109
Ar 3.761215 5.240056 8.805427
Ar 7.677604 8.796567 0.281644
10
Lattice="10.0 0 0 0 10.0 0 0 0 10.0" Properties=species:S:1:pos:R:3 pbc="T T T" Time=918
Ar 9.085738 4.558593 7.687320
Ar 4.158133 5.613474 6.214226
Ar 7.497081 6.323488 1.938575
Ar 9.107626 7.238822 1.946053
Ar 7.729992 2.516534 2.443448
Ar 3.989285 1.134412 3.379951
Ar 7.017298 8.805587 5.219308
Ar 6.774143 3.115446 0.998975
Ar 3.765024 5.245181 8.814012
Ar 7.685966 8.805263 0.281919
10
Lattice="10.0 0 0 0 10.0 0 0 0 10.0" Properties=species:S:1:pos:R:3 pbc="T T T" Time=919
Ar 9.095252 4.562660 7.695639
Ar 4.162364 5.618540 6.220888
Ar 7.504709 6.329467 1.939888
Ar 9.117108 7.246644 1.948087
Ar 7.737514 2.519151 2.445248
Ar 3.992693 1.134648 3.383360
Ar 7.024429 8.814468 5.224215
Ar 6.780442 3.117763 0.999840
Ar 3.768833 5.250307 8.822597
Ar 7.694328 8.813959 0.282193
10
Lattice="10.0 0 0 0 10.0 0 0 0 10.0" Properties=species:S:1:pos:R:3 pbc="T T T" Time=920
Ar 9.104766 4.566728 7.703958
Ar 4.166595 5.623607 6.227549
Ar 7.512337 6.335446 1.941201
Ar 9.126590 7.254466 1.950120
Ar 7.745036 2.521767 2.447047
Ar 3.996101 1.134885 3.386770
Ar 7.031559 8.823350 5.229122
Ar 6.786740 3.120079 1.000705
Ar 3.772642 5.255432 8.831181
Ar 7.702690 8.822655 0.282468
10
Lattice="10.0 0 0 0 10.0 0 0 0 10.0" Properties=species:S:1:pos:R:3 pbc="T T T" Time=921
Ar 9.114280 4.570795 7.712277
Ar 4.170826 5.628673 6.234211
Ar 7.519965 6.341426 1.942514
Ar 9.136072 7.262288 1.952153
Ar 7.752558 2.524384 2.448846
Ar 3.999510 1.135121 3.390179
Ar 7.038690 8.832231 5.234029
Ar 6.793039 3.122396 1.001570
Ar 3.776451 5.260557 8.839766
Ar 7.711052 8.831351 0.282743
10
Lattice="10.0 0 0 0 10.0 0 0 0 10.0" Properties=species:S:1:pos:R:3 pbc="T T T" Time=922
Ar 9.123794 4.574863 7.720596
Ar 4.175058 5.633740 6.240872
Ar 7.527593 6.347405 1.943827
Ar 9.145554 7.270111 1.954187
Ar 7.760080 2.527000 2.450646
Ar 4.002918 1.135357 3.393589
Ar 7.045820 8.841113 5.238936
Ar 6.799337 3.124712 1.002436
Ar 3.780260 5.265682 8.848351
Ar 7.719414 8.840047 0.283017
10
Lattice="10.0 0 0 0 10.0 0 0 0 10.0" Properties=species:S:1:pos:R:3 pbc="T T T" Time=923
Ar 9.133308 4.578930 7.728915
Ar 4.179289 5.638807 6.247534
Ar 7.535221 6.353384 1.945140
Ar 9.155037 7.277933 1.956220
Ar 7.767602 2.529617 2.452445
Ar 4.006326 1.135594 3.396999
Ar 7.052951 8.849994 5.243843
Ar 6.805636 3.127029 1.003301
Ar 3.784070 5.270808 8.856936
Ar 7.727776 8.848743 0.283292
10
Lattice="10.0 0 0 0 10.0 0 0 0 10.0" Properties=species:S:1:pos:R:3 pbc="T T T" Time=924
Ar 9.142822 4.582998 7.737234
Ar 4.183520 5.643873 6.254196
Ar 7.542849 6.359363 1.946453
Ar 9.164519 7.285755 1.958253
Ar 7.775124 2.532234 2.454245
Ar 4.009734 1.135830 3.400408
Ar 7.060082 8.858875 5.248750
Ar 6.811934 3.129345 1.004166
Ar 3.787879 5.275933 8.865521
Ar 7.736138 8.857439 0.283566
10
Lattice="10.0 0 0 0 10.0 0 0 0 10.0" Properties=species:S:1:pos:R:3 pbc="T T T" Time=925
Ar 9.152336 4.587066 7.745553
Ar 4.187751 5.648940 6.260857
Ar 7.550477 6.365342 1.947766
Ar 9.174001 7.293577 1.960287
Ar 7.782647 2.534850 2.456044
Ar 4.013142 1.136067 3.403818
Ar 7.067212 8.867757 5.253658
Ar 6.818233 3.131662 1.005031
Ar 3.791688 5.281058 8.874106
Ar 7.744500 8.866135 0.283841
10
Lattice="10.0 0 0 0 10.0 0 0 0 10.0" Properties=species:S:1:pos:R:3 pbc="T T T" Time=926
Ar 9.161850 4.591133 7.753872
Ar 4.191982 5.654007 6.267519
Ar 7.558105 6.371321 1.949079
Ar 9.183483 7.301399 1.962320
Ar 7.790169 2.537467 2.457844
Ar 4.016550 1.136303 3.407227
Ar 7.074343 8.876638 5.258565
Ar 6.824531 3.133978 1.005896
Ar 3.795497 5.286184 8.882691
Ar 7.752862 8.874831 0.284116
10
Lattice="10.0 0 0 0 10.0 0 0 0 10.0" Properties=species:S:1:pos:R:3 pbc="T T T" Time=927
Ar 9.171364 4.595201 7.762191
Ar 4.196213 5.659073 6.274180
Ar 7.565733 6.377300 1.950392
Ar 9.192965 7.309221 1.964353
Ar 7.797691 2.540083 2.459643
Ar 4.019958 1.136540 3.410637
Ar 7.081474 8.885519 5.263472
Ar 6.830830 3.136295 1.006762
Ar 3.799306 5.291309 8.891276
Ar 7.761224 8.883527 0.284390
10
Lattice="10.0 0 0 0 10.0 0 0 0 10.0" Properties=species:S:1:pos:R:3 pbc="T T T" Time=928
Ar 9.180878 4.599268 7.770510
Ar 4.200444 5.664140 6.280842
Ar 7.573361 6.383279 1.951705
Ar 9.202448 7.317043 1.966387
Ar 7.805213 2.542700 2.461442
Ar 4.023366 1.136776 3.414047
Ar 7.088604 8.894401 5.268379
Ar 6.837128 3.138611 1.007627
Ar 3.803115 5.296434 8.899861
Ar 7.769585 8.892223 0.284665
10
Lattice="10.0 0 0 0 10.0 0 0 0 10.0" Properties=species:S:1:pos:R:3 pbc="T T T" Time=929
Ar 9.190392 4.603336 7.778829
Ar 4.204676 5.669207 6.287503
Ar 7.580989 6.389258 1.953018
Ar 9.211930 7.324865 1.968420
Ar 7.812735 2.545316 2.463242
Ar 4.026774 1.137013 3.417456
Ar 7.095735 8.903282 5.273286
Ar 6.843427 3.140928 1.008492
Ar 3.806925 5.301560 8.908446
Ar 7.777947 8.900919 0.284940
10
Lattice="10.0 0 0 0 10.0 0 0 0 10.0" Properties=species:S:1:pos:R:3 pbc="T T T" Time=930
Ar 9.199906 4.607404 7.787148
Ar 4.208907 5.674273 6.294165
Ar 7.588617 6.395237 1.954331
Ar 9.221412 7.332687 1.970453
Ar 7.820257 2.547933 2.465041
Ar 4.030182 1.137249 3.420866
Ar 7.102866 8.912164 5.278193
Ar 6.849725 3.143244 1.009357
Ar 3.810734 5.306685 8.917030
Ar 7.786309 8.909615 0.285214
10
Lattice="10.0 0 0 0 10.0 0 0 0 10.0" Properties=species:S:1:pos:R:3 pbc="T T T" Time=931
Ar 9.209420 4.611471 7.795467
Ar 4.213138 5.679340 6.300826
Ar 7.596245 6.401216 1.955644
Ar 9.230894 7.340509 1.972487
Ar 7.827779 2.550550 2.466841
Ar 4.033590 1.137486 3.424275
Ar 7.109996 8.921045 5.283100
Ar 6.856024 3.145561 1.010222
Ar 3.814543 5.311810 8.925615
Ar 7.794671 8.918311 0.285489
10
Lattice="10.0 0 0 0 10.0 0 0 0 10.0" Properties=species:S:1:pos:R:3 pbc="T T T" Time=932
Ar 9.218934 4.615539 7.803786
Ar 4.217369 5.684407 6.307488
Ar 7.603873 6.407195 1.956957
Ar 9.240376 7.348331 1.974520
Ar 7.835301 2.553166 2.468640
Ar 4.036998 1.137722 3.427685
Ar 7.117127 8.929926 5.288007
Ar 6.862322 3.147877 1.011088
Ar 3.818352 5.316936 8.934200
Ar 7.803033 8.927007 0.285763
10
Lattice="10.0 0 0 0 10.0 0 0 0 10.0" Properties=species:S:1:pos:R:3 pbc="T T T" Time=933
Ar 9.228448 4.619606 7.812105
Ar 4.221600 5.689473 6.314149
Ar 7.611501 6.413174 1.958270
Ar 9.249859 7.356153 1.976553
Ar 7.842823 2.555783 2.470439
Ar 4.040407 1.137959 3.431095
Ar 7.124257 8.938808 5.292914
Ar 6.868621 3.150194 1.011953
Ar 3.822161 5.322061 8.942785
Ar 7.811395 8.935703 0.286038
10
Lattice="10.0 0 0 0 10.0 0 0 0 10.0" Properties=species:S:1:pos:R:3 pbc="T T T" Time=934
Ar 9.237962 4.623674 7.820424
Ar 4.225831 5.694540 6.320811
Ar 7.619129 6.419154 1.959583
Ar 9.259341 7.363975 1.978587
Ar 7.850345 2.558399 2.472239
Ar 4.043815 1.138195 3.434504
Ar 7.131388 8.947689 5.297821
Ar 6.874919 3.152510 1.012818
Ar 3.825971 5.327186 8.951370
Ar 7.819757 8.944399 0.286313
10
Lattice="10.0 0 0 0 10.0 0 0 0 10.0" Properties=species:S:1:pos:R:3 pbc="T T T" Time=935
Ar 9.247476 4.627742 7.828743
Ar 4.230062 5.699606 6.327472
Ar 7.626757 6.425133 1.960896
Ar 9.268823 7.371798 1.980620
Ar 7.857867 2.561016 2.474038
Ar 4.047223 1.138432 3.437914
Ar 7.138519 8.956571 5.302728
Ar 6.881218 3.154827 1.013683
Ar 3.829780 5.332312 8.959955
Ar 7.828119 8.953095 0.286587
10
Lattice="10.0 0 0 0 10.0 0 0 0 10.0" Properties=species:S:1:pos:R:3 pbc="T T T" Time=936
Ar 9.256990 4.631809 7.837062
Ar 4.234294 5.704673 6.334134
Ar 7.634385 6.431112 1.962209
Ar 9.278305 7.379620 1.982654
Ar 7.865389 2.563632 2.475838
Ar 4.050631 1.138668 3.441323
Ar 7.145649 8.965452 5.307635
Ar 6.887516 3.157143 1.014548
Ar 3.833589 5.337437 8.968540
Ar 7.836481 8.961790 0.286862
10
Lattice="10.0 0 0 0 10.0 0 0 0 10.0" Properties=species:S:1:pos:R:3 pbc="T T T" Time=937
Ar 9.266505 4.635877 7.845381
Ar 4.238525 5.709740 6.340796
Ar 7.642013 6.437091 1.963522
Ar 9.287787 7.387442 1.984687
Ar 7.872912 2.566249 2.477637
Ar 4.054039 1.138905 3.444733
Ar 7.152780 8.974333 5.312542
Ar 6.893815 3.159460 1.015414
Ar 3.837398 5.342562 8.977125
Ar 7.844843 8.970486 0.287136
10
Lattice="10.0 0 0 0 10.0 0 0 0 10.0" Properties=species:S:1:pos:R:3 pbc="T T T" Time=938
Ar 9.276019 4.639944 7.853700
Ar 4.242756 5.714806 6.347457
Ar 7.649641 6.443070 1.964835
Ar 9.297270 7.395264 1.986720
Ar 7.880434 2.568866 2.479437
Ar 4.057447 1.139141 3.448143
Ar 7.159911 8.983215 5.317449
Ar 6.900113 3.161776 1.016279
Ar 3.841207 5.347688 8.985710
Ar 7.853205 8.979182 0.287411
10
Lattice="10.0 0 0 0 10.0 0 0 0 10.0" Properties=species:S:1:pos:R:3 pbc="T T T" Time=939
Ar 9.285533 4.644012 7.862019
Ar 4.246987 5.719873 6.354119
Ar 7.657269 6.449049 1.966148
Ar 9.306752 7.403086 1.988754
Ar 7.887956 2.571482 2.481236
Ar 4.060855 1.139378 3.451552
Ar 7.167041 8.992096 5.322356
Ar 6.906412 3.164093 1.017144
Ar 3.845016 5.352813 8.994294
Ar 7.861567 8.987878 0.287686
10
Lattice="10.0 0 0 0 10.0 0 0 0 10.0" Properties=species:S:1:pos:R:3 pbc="T T T" Time=940
Ar 9.295047 4.648080 7.870338
Ar 4.251218 5.724940 6.360780
Ar 7.664897 6.455028 1.967461
Ar 9.316234 7.410908 1.990787
Ar 7.895478 2.574099 2.483035
Ar 4.064263 1.139614 3.454962
Ar 7.174172 9.000978 5.327263
Ar 6.912710 3.166409 1.018009
Ar 3.848826 5.357938 9.002879
Ar 7.869929 8.996574 0.287960
10
Lattice="10.0 0 0 0 10.0 0 0 0 10.0" Properties=species:S:1:pos:R:3 pbc="T T T" Time=941
Ar 9.304561 4.652147 7.878657
Ar 4.255449 5.730006 6.367442
Ar 7.672525 6.461007 1.968774
Ar 9.325716 7.418730 1.992820
Ar 7.903000 2.576715 2.484835
Ar 4.067671 1.139850 3.458371
Ar 7.181302 9.009859 5.332170
Ar 6.919009 3.168726 1.018874
Ar 3.852635 5.363064 9.011464
Ar 7.878291 9.005270 0.288235
10
Lattice="10.0 0 0 0 10.0 0 0 0 10.0" Properties=species:S:1:pos:R:3 pbc="T T T" Time=942
Ar 9.314075 4.656215 7.886976
Ar 4.259680 5.735073 6.374103
Ar 7.680153 6.466986 1.970087
Ar 9.335198 7.426552 1.994854
Ar 7.910522 2.579332 2.486634
Ar 4.071079 1.140087 3.461781
Ar 7.188433 9.018740 5.337077
Ar 6.925307 3.171042 1.019740
Ar 3.856444 5.368189 9.020049
Ar 7.886653 9.013966 0.288510
10
Lattice="10.0 0 0 0 10.0 0 0 0 10.0" Properties=species:S:1:pos:R:3 pbc="T T T" Time=943
Ar 9.323589 4.660282 7.895295
Ar 4.263911 5.740140 6.380765
Ar 7.687781 6.472965 1.971400
Ar 9.344681 7.434374 1.996887
Ar 7.918044 2.581948 2.488434
Ar 4.074487 1.140323 3.465191
Ar 7.195564 9.027622 5.341984
Ar 6.931606 3.173359 1.020605
Ar 3.860253 5.373314 9.028634
Ar 7.895015 9.022662 0.288784
10
Lattice="10.0 0 0 0 10.0 0 0 0 10.0" Properties=species:S:1:pos:R:3 pbc="T T T" Time=944
Ar 9.333103 4.664350 7.903614
Ar 4.268143 5.745206 6.387426
Ar 7.695409 6.478944 1.972713
Ar 9.354163 7.442196 1.998920
Ar 7.925566 2.584565 2.490233
Ar 4.077895 1.140560 3.468600
Ar 7.202694 9.036503 5.346891
Ar 6.937904 3.175675 1.021470
Ar 3.864062 5.378440 9.037219
Ar 7.903377 9.031358 0.289059
10
Lattice="10.0 0 0 0 10.0 0 0 0 10.0" Properties=species:S:1:pos:R:3 pbc="T T T" Time=945
Ar 9.342617 4.668418 7.911933
Ar 4.272374 5.750273 6.394088
Ar 7.703037 6.484923 1.974026
Ar 9.363645 7.450018 2.000954
Ar 7.933088 2.587182 2.492033
Ar 4.081304 1.140796 3.472010
Ar 7.209825 9.045385 5.351798
Ar 6.944203 3.177991 1.022335
Ar 3.867872 5.383565 9.045804
Ar 7.911739 9.040054 0.289333
10
Lattice="10.0 0 0 0 10.0 0 0 0 10.0" Properties=species:S:1:pos:R:3 pbc="T T T" Time=946
Ar 9.352131 4.672485 7.920252
Ar 4.276605 5.755339 6.400749
Ar 7.710665 6.490902 1.975339
Ar 9.373127 7.457840 2.002987
Ar 7.940610 2.589798 2.493832
Ar 4.084712 1.141033 3.475419
Ar 7.216956 9.054266 5.356706
Ar 6.950501 3.180308 1.023200
Ar 3.871681 5.388690 9.054389
Ar 7.920101 9.048750 0.289608
10
Lattice="10.0 0 0 0 10.0 0 0 0 10.0" Properties=species:S:1:pos:R:3 pbc="T T T" Time=947
Ar 9.361645 4.676553 7.928571
Ar 4.280836 5.760406 6.407411
Ar 7.718293 6.496882 1.976652
Ar 9.382609 7.465662 2.005020
Ar 7.948132 2.592415 2.495631
Ar 4.088120 1.141269 3.478829
Ar 7.224086 9.063147 5.361613
Ar 6.956800 3.182624 1.024066
Ar 3.875490 5.393816 9.062974
Ar 7.928463 9.057446 0.289883
10
Lattice="10.0 0 0 0 10.0 0 0 0 10.0" Properties=species:S:1:pos:R:3 pbc="T T T" Time=948
Ar 9.371159 4.680620 7.936890
Ar 4.285067 5.765473 6.414073
Ar 7.725921 6.502861 1.977965
Ar 9.392092 7.473485 2.007054
Ar 7.955655 2.595031 2.497431
Ar 4.091528 1.141506 3.482239
Ar 7.231217 9.072029 5.366520
Ar 6.963098 3.184941 1.024931
Ar 3.879299 5.398941 9.071559
Ar 7.936825 9.066142 0.290157
10
Lattice="10.0 0 0 0 10.0 0 0 0 10.0" Properties=species:S:1:pos:R:3 pbc="T T T" Time=949
Ar 9.380673 4.684688 7.945209
Ar 4.289298 5.770539 6.420734
Ar 7.733549 6.508840 1.979278
Ar 9.401574 7.481307 2.009087
Ar 7.963177 2.597648 2.499230
Ar 4.094936 1.141742 3.485648
Ar 7.238347 9.080910 5.371427
Ar 6.969397 3.187257 1.025796
Ar 3.883108 5.404066 9.080143
Ar 7.945187 9.074838 0.290432
10
Lattice="10.0 0 0 0 10.0 0 0 0 10.0" Properties=species:S:1:pos:R:3 pbc="T T T" Time=950
Ar 9.390187 4.688755 7.953528
Ar 4.293529 5.775606 6.427396
Ar 7.741177 6.514819 1.980591
Ar 9.411056 7.489129 2.011120
Ar 7.970699 2.600264 2.501030
Ar 4.098344 1.141979 3.489058
Ar 7.245478 9.089792 5.376334
Ar 6.975695 3.189574 1.026661
Ar 3.886917 5.409191 9.088728
Ar 7.953549 9.083534 0.290706
10
Lattice="10.0 0 0 0 10.0 0 0 0 10.0" Properties=species:S:1:pos:R:3 pbc="T T T" Time=951
Ar 9.399701 4.692823 7.961847
Ar 4.297761 5.780673 6.434057
Ar 7.748805 6.520798 1.981904
Ar 9.420538 7.496951 2.013154
Ar 7.978221 2.602881 2.502829
Ar 4.101752 1.142215 3.492467
Ar 7.252609 9.098673 5.381241
Ar 6.981994 3.191890 1.027526
Ar 3.890727 5.414317 9.097313
Ar 7.961911 9.092230 0.290981
10
Lattice="10.0 0 0 0 10.0 0 0 0 10.0" Properties=species:S:1:pos:R:3 pbc="T T T" Time=952
Ar 9.409215 4.696891 7.970166
Ar 4.301992 5.785739 6.440719
Ar 7.756433 6.526777 1.983217
Ar 9.430020 7.504773 2.015187
Ar 7.985743 2.605498 2.504629
Ar 4.105160 1.142452 3.495877
Ar 7.259739 9.107554 5.386148
Ar 6.988292 3.194207 1.028392
Ar 3.894536 5.419442 9.105898
Ar 7.970273 9.100926 0.291256
10
Lattice="10.0 0 0 0 10.0 0 0 0 10.0" Properties=species:S:1:pos:R:3 pbc="T T T" Time=953
Ar 9.418729 4.700958 7.978485
Ar 4.306223 5.790806 6.447380
Ar 7.764061 6.532756 1.984530
Ar 9.439503 7.512595 2.017221
Ar 7.993265 2.608114 2.506428
Ar 4.108568 1.142688 3.499287
Ar 7.266870 9.116436 5.391055
Ar 6.994591 3.196523 1.029257
Ar 3.898345 5.424567 9.114483
Ar 7.978635 9.109622 0.291530
10
Lattice="10.0 0 0 0 10.0 0 0 0 10.0" Properties=species:S:1:pos:R:3 pbc="T T T" Time=954
Ar 9.428243 4.705026 7.986804
Ar 4.310454 5.795873 6.454042
Ar 7.771689 6.538735 1.985843
Ar 9.448985 7.520417 2.019254
Ar 8.000787 2.610731 2.508227
Ar 4.111976 1.142925 3.502696
Ar 7.274001 9.125317 5.395962
Ar 7.000889 3.198840 1.030122
Ar 3.902154 5.429693 9.123068
Ar 7.986997 9.118318 0.291805
10
Lattice="10.0 0 0 0 10.0 0 0 0 10.0" Properties=species:S:1:pos:R:3 pbc="T T T" Time=955
Ar 9.437757 4.709093 7.995123
Ar 4.314685 5.800939 6.460703
Ar 7.779317 6.544714 1.987156
Ar 9.458467 7.528239 2.021287
Ar 8.008309 2.613347 2.510027
Ar 4.115384 1.143161 3.506106
Ar 7.281131 9.134198 5.400869
Ar 7.007188 3.201156 1.030987
Ar 3.905963 5.434818 9.131653
Ar 7.995358 9.127014 0.292080
10
Lattice="10.0 0 0 0 10.0 0 0 0 10.0" Properties=species:S:1:pos:R:3 pbc="T T T" Time=956
Ar 9.447271 4.713161 8.003442
Ar 4.318916 5.806006 6.467365
Ar 7.786944 6.550693 1.988469
Ar 9.467949 7.536061 2.023321
Ar 8.015831 2.615964 2.511826
Ar 4.118792 1.143398 3.509515
Ar 7.288262 9.143080 5.405776
Ar 7.013486 3.203473 1.031852
Ar 3.909772 5.439943 9.140238
Ar 8.003720 9.135710 0.292354
10
Lattice="10.0 0 0 0 10.0 0 0 0 10.0" Properties=species:S:1:pos:R:3 pbc="T T T" Time=957
Ar 9.456785 4.717229 8.011761
Ar 4.323147 5.811073 6.474026
Ar 7.794572 6.556672 1.989782
Ar 9.477431 7.543883 2.025354
Ar 8.023353 2.618580 2.513626
Ar 4.122201 1.143634 3.512925
Ar 7.295393 9.151961 5.410683
Ar 7.019785 3.205789 1.032718
Ar 3.913582 5.445069 9.148823
Ar 8.012082 9.144406 0.292629
10
Lattice="10.0 0 0 0 10.0 0 0 0 10.0" Properties=species:S:1:pos:R:3 pbc="T T T" Time=958
Ar 9.466299 4.721296 8.020080
Ar 4.327378 5.816139 6.480688
Ar 7.802200 6.562651 1.991095
Ar 9.486914 7.551705 2.027387
Ar 8.030875 2.621197 2.515425
Ar 4.125609 1.143870 3.516335
Ar 7.302523 9.160843 5.415590
Ar 7.026083 3.208106 1.033583
Ar 3.917391 5.450194 9.157408
Ar 8.020444 9.153101 0.292903
10
Lattice="10.0 0 0 0 10.0 0 0 0 10.0" Properties=species:S:1:pos:R:3 pbc="T T T" Time=959
Ar 9.475814 4.725364 8.028399
Ar 4.331610 5.821206 6.487349
Ar 7.809828 6.568630 1.992408
Ar 9.496396 7.559527 2.029421
Ar 8.038397 2.623814 2.517225
Ar 4.129017 1.144107 3.519744
Ar 7.309654 9.169724 5.420497
Ar 7.032382 3.210422 1.034448
Ar 3.921200 5.455319 9.165992
Ar 8.028806 9.161797 0.293178
10
Lattice="10.0 0 0 0 10.0 0 0 0 10.0" Properties=species:S:1:pos:R:3 pbc="T T T" Time=960
Ar 9.485328 4.729431 8.036718
Ar 4.335841 5.826272 6.494011
Ar 7.817456 6.574610 1.993721
Ar 9.505878 7.567349 2.031454
Ar 8.045920 2.626430 2.519024
Ar 4.132425 1.144343 3.523154
Ar 7.316784 9.178605 5.425404
Ar 7.038680 3.212739 1.035313
Ar 3.925009 5.460445 9.174577
Ar 8.037168 9.170493 0.293453
10
Lattice="10.0 0 0 0 10.0 0 0 0 10.0" Properties=species:S:1:pos:R:3 pbc="T T T" Time=961
Ar 9.494842 4.733499 8.045037
Ar 4.340072 5.831339 6.500673
Ar 7.825084 6.580589 1.995034
Ar 9.515360 7.575172 2.033487
Ar 8.053442 2.629047 2.520823
Ar 4.135833 1.144580 3.526563
Ar 7.323915 9.187487 5.430311
Ar 7.044979 3.215055 1.036178
Ar 3.928818 5.465570 9.183162
Ar 8.045530 9.179189 0.293727
10
Lattice="10.0 0 0 0 10.0 0 0 0 10.0" Properties=species:S:1:pos:R:3 pbc="T T T" Time=962
Ar 9.504356 4.737567 8.053356
Ar 4.344303 5.836406 6.507334
Ar 7.832712 6.586568 1.996347
Ar 9.524843 7.582994 2.035521
Ar 8.060964 2.631663 2.522623
Ar 4.139241 1.144816 3.529973
Ar 7.331046 9.196368 5.435218
Ar 7.051277 3.217372 1.037044
Ar 3.932628 5.470695 9.191747
Ar 8.053892 9.187885 0.294002
10
Lattice="10.0 0 0 0 10.0 0 0 0 10.0" Properties=species:S:1:pos:R:3 pbc="T T T" Time=963
Ar 9.513870 4.741634 8.061675
Ar 4.348534 5.841472 6.513996
Ar 7.840340 6.592547 1.997660
Ar 9.534325 7.590816 2.037554
Ar 8.068486 2.634280 2.524422
Ar 4.142649 1.145053 3.533383
Ar 7.338176 9.205250 5.440125
Ar 7.057576 3.219688 1.037909
Ar 3.936437 5.475821 9.200332
Ar 8.062254 9.196581 0.294277
10
Lattice="10.0 0 0 0 10.0 0 0 0 10.0" Properties=species:S:1:pos:R:3 pbc="T T T" Time=964
Ar 9.523384 4.745702 8.069994
Ar 4.352765 5.846539 6.520657
Ar 7.847968 6.598526 1.998973
Ar 9.543807 7.598638 2.039587
Ar 8.076008 2.636896 2.526222
Ar 4.146057 1.145289 3.536792
Ar 7.345307 9.214131 5.445032
Ar 7.063874 3.222005 1.038774
Ar 3.940246 5.480946 9.208917
Ar 8.070616 9.205277 0.294551
10
Lattice="10.0 0 0 0 10.0 0 0 0 10.0" Properties=species:S:1:pos:R:3 pbc="T T T" Time=965
Ar 9.532898 4.749769 8.078313
Ar 4.356996 5.851606 6.527319
Ar 7.855596 6.604505 2.000286
Ar 9.553289 7.606460 2.041621
Ar 8.083530 2.639513 2.528021
Ar 4.149465 1.145526 3.540202
Ar 7.352438 9.223012 5.449939
Ar 7.070173 3.224321 1.039639
Ar 3.944055 5.486071 9.217502
Ar 8.078978 9.213973 0.294826
10
Lattice="10.0 0 0 0 10.0 0 0 0 10.0" Properties=species:S:1:pos:R:3 pbc="T T T" Time=966
Ar 9.542412 4.753837 8.086632
Ar 4.361228 5.856672 6.533980
Ar 7.863224 6.610484 2.001599
Ar 9.562771 7.614282 2.043654
Ar 8.091052 2.642130 2.529820
Ar 4.152873 1.145762 3.543611
Ar 7.359568 9.231894 5.454846
Ar 7.076471 3.226638 1.040504
Ar 3.947864 5.491197 9.226087
Ar 8.087340 9.222669 0.295100
10
Lattice="10.0 0 0 0 10.0 0 0 0 10.0" Properties=species:S:1:pos:R:3 pbc="T T T" Time=967
Ar 9.551926 4.757905 8.094951
Ar 4.365459 5.861739 6.540642
Ar 7.870852 6.616463 2.002912
Ar 9.572254 7.622104 2.045687
Ar 8.098574 2.644746 2.531620
Ar 4.156281 1.145999 3.547021
Ar 7.366699 9.240775 5.459754
Ar 7.082770 3.228954 1.041370
Ar 3.951673 5.496322 9.234672
Ar 8.095702 9.231365 0.295375
10
Lattice="10.0 0 0 0 10.0 0 0 0 10.0" Properties=species:S:1:pos:R:3 pbc="T T T" Time=968
Ar 9.561440 4.761972 8.103270
Ar 4.369690 5.866806 6.547303
Ar 7.878480 6.622442 2.004225
Ar 9.581736 7.629926 2.047721
Ar 8.106096 2.647363 2.533419
Ar 4.159689 1.146235 3.550431
Ar 7.373829 9.249657 5.464661
Ar 7.089068 3.231271 1.042235
Ar 3.955483 5.501447 9.243256
Ar 8.104064 9.240061 0.295650
10
Lattice="10.0 0 0 0 10.0 0 0 0 10.0" Properties=species:S:1:pos:R:3 pbc="T T T" Time=969
Ar 9.570954 4.766040 8.111589
Ar 4.373921 5.871872 6.553965
Ar 7.886108 6.628421 2.005538
Ar 9.591218 7.637748 2.049754
Ar 8.113618 2.649979 2.535219
Ar 4.163098 1.146472 3.553840
Ar 7.380960 9.258538 5.469568
Ar 7.095367 3.233587 1.043100
Ar 3.959292 5.506573 9.251841
Ar 8.112426 9.248757 0.295924
10
Lattice="10.0 0 0 0 10.0 0 0 0 10.0" Properties=species:S:1:pos:R:3 pbc="T T T" Time=970
Ar 9.580468 4.770107 8.119908
Ar 4.378152 5.876939 6.560626
Ar 7.893736 6.634400 2.006851
Ar 9.600700 7.645570 2.051788
Ar 8.121140 2.652596 2.537018
Ar 4.166506 1.146708 3.557250
Ar 7.388091 9.267419 5.474475
Ar 7.101665 3.235904 1.043965
Ar 3.963101 5.511698 9.260426
Ar 8.120788 9.257453 0.296199
10
Lattice="10.0 0 0 0 10.0 0 0 0 10.0" Properties=species:S:1:pos:R:3 pbc="T T T" Time=971
Ar 9.589982 4.774175 8.128227
Ar 4.382383 5.882006 6.567288
Ar 7.901364 6.640379 2.008164
Ar 9.610182 7.653392 2.053821
Ar 8.128662 2.655212 2.538818
Ar 4.169914 1.146945 3.560659
Ar 7.395221 9.276301 5.479382
Ar 7.107964 3.238220 1.044830
Ar 3.966910 5.516823 9.269011
Ar 8.129150 9.266149 0.296473
10
Lattice="10.0 0 0 0 10.0 0 0 0 10.0" Properties=species:S:1:pos:R:3 pbc="T T T" Time=972
Ar 9.599496 4.778243 8.136546
Ar 4.386614 5.887072 6.573950
Ar 7.908992 6.646358 2.009477
Ar 9.619665 7.661214 2.055854
Ar 8.136185 2.657829 2.540617
Ar 4.173322 1.147181 3.564069
Ar 7.402352 9.285182 5.484289
Ar 7.114262 3.240537 1.045696
Ar 3.970719 5.521949 9.277596
Ar 8.137512 9.274845 0.296748
10
Lattice="10.0 0 0 0 10.0 0 0 0 10.0" Properties=species:S:1:pos:R:3 pbc="T T T" Time=973
Ar 9.609010 4.782310 8.144865
Ar 4.390846 5.892139 6.580611
Ar 7.916620 6.652338 2.010790
Ar 9.629147 7.669036 2.057888
Ar 8.143707 2.660446 2.542416
Ar 4.176730 1.147418 3.567479
Ar 7.409483 9.294064 5.489196
Ar 7.120561 3.242853 1.046561
Ar 3.974528 5.527074 9.286181
Ar 8.145874 9.283541 0.297023
10
Lattice="10.0 0 0 0 10.0 0 0 0 10.0" Properties=species:S:1:pos:R:3 pbc="T T T" Time=974
Ar 9.618524 4.786378 8.153184
Ar 4.395077 5.897205 6.587273
Ar 7.924248 6.658317 2.012103
Ar 9.638629 7.676859 2.059921
Ar 8.151229 2.663062 2.544216
Ar 4.180138 1.147654 3.570888
Ar 7.416613 9.302945 5.494103
Ar 7.126859 3.245170 1.047426
Ar 3.978338 5.532199 9.294766
Ar 8.154236 9.292237 0.297297
10
Lattice="10.0 0 0 0 10.0 0 0 0 10.0" Properties=species:S:1:pos:R:3 pbc="T T T" Time=975
Ar 9.628038 4.790445 8.161503
Ar 4.399308 5.902272 6.593934
Ar 7.931876 6.664296 2.013416
Ar 9.648111 7.684681 2.061954
Ar 8.158751 2.665679 2.546015
Ar 4.183546 1.147891 3.574298
Ar 7.423744 9.311826 5.499010
Ar 7.133158 3.247486 1.048291
Ar 3.982147 5.537324 9.303351
Ar 8.162598 9.300933 0.297572
10
Lattice="10.0 0 0 0 10.0 0 0 0 10.0" Properties=species:S:1:pos:R:3 pbc="T T T" Time=976
Ar 9.637552 4.794513 8.169822
Ar 4.403539 5.907339 6.600596
Ar 7.939504 6.670275 2.014729
Ar 9.657593 7.692503 2.063988
Ar 8.166273 2.668295 2.547815
Ar 4.186954 1.148127 3.577707
Ar 7.430874 9.320708 5.503917
Ar 7.139456 3.249803 1.049156
Ar 3.985956 5.542450 9.311936
Ar 8.170960 9.309629 0.297847
10
Lattice="10.0 0 0 0 10.0 0 0 0 10.0" Properties=species:S:1:pos:R:3 pbc="T T T" Time=977
Ar 9.647066 4.798580 8.178141
Ar 4.407770 5.912405 6.607257
Ar 7.947132 6.676254 2.016042
Ar 9.667076 7.700325 2.066021
Ar 8.173795 2.670912 2.549614
Ar 4.190362 1.148363 3.581117
Ar 7.438005 9.329589 5.508824
Ar 7.145755 3.252119 1.050022
Ar 3.989765 5.547575 9.320521
Ar 8.179322 9.318325 0.298121
10
Lattice="10.0 0 0 0 10.0 0 0 0 10.0" Properties=species:S:1:pos:R:3 pbc="T T T" Time=978
Ar 9.656580 4.802648 8.186460
Ar 4.412001 5.917472 6.613919
Ar 7.954760 6.682233 2.017355
Ar 9.676558 7.708147 2.068054
Ar 8.181317 2.673528 2.551414
Ar 4.193770 1.148600 3.584527
Ar 7.445136 9.338470 5.513731
Ar 7.152053 3.254436 1.050887
Ar 3.993574 5.552700 9.329105
Ar 8.187684 9.327021 0.298396
10
Lattice="10.0 0 0 0 10.0 0 0 0 10.0" Properties=species:S:1:pos:R:3 pbc="T T T" Time=979
Ar 9.666094 4.806716 8.194779
Ar 4.416232 5.922539 6.620580
Ar 7.962388 6.688212 2.018668
Ar 9.686040 7.715969 2.070088
Ar 8.188839 2.676145 2.553213
Ar 4.197178 1.148836 3.587936
Ar 7.452266 9.347352 5.518638
Ar 7.158352 3.256752 1.051752
Ar 3.997384 5.557826 9.337690
Ar 8.196046 9.335716 0.298670
10
Lattice="10.0 0 0 0 10.0 0 0 0 10.0" Properties=species:S:1:pos:R:3 pbc="T T T" Time=980
Ar 9.675608 4.810783 8.203098
Ar 4.420463 5.927605 6.627242
Ar 7.970016 6.694191 2.019981
Ar 9.695522 7.723791 2.072121
Ar 8.196361 2.678762 2.555012
Ar 4.200586 1.149073 3.591346
Ar 7.459397 9.356233 5.523545
Ar 7.164650 3.259069 1.052617
Ar 4.001193 5.562951 9.346275
Ar 8.204408 9.344412 0.298945
10
Lattice="10.0 0 0 0 10.0 0 0 0 10.0" Properties=species:S:1:pos:R:3 pbc="T T T" Time=981
Ar 9.685122 4.814851 8.211417
Ar 4.424695 5.932672 6.633903
Ar 7.977644 6.700170 2.021294
Ar 9.705004 7.731613 2.074154
Ar 8.203883 2.681378 2.556812
Ar 4.203995 1.149309 3.594755
Ar 7.466528 9.365115 5.528452
Ar 7.170949 3.261385 1.053482
Ar 4.005002 5.568076 9.354860
Ar 8.212770 9.353108 0.299220
10
Lattice="10.0 0 0 0 10.0 0 0 0 10.0" Properties=species:S:1:pos:R:3 pbc="T T T" Time=982
Ar 9.694637 4.818918 8.219736
Ar 4.428926 5.937739 6.640565
Ar 7.985272 6.706149 2.022607
Ar 9.714487 7.739435 2.076188
Ar 8.211405 2.683995 2.558611
Ar 4.207403 1.149546 3.598165
Ar 7.473658 9.373996 5.533359
Ar 7.177247 3.263702 1.054348
Ar 4.008811 5.573202 9.363445
Ar 8.221131 9.361804 0.299494
10
Lattice="10.0 0 0 0 10.0 0 0 0 10.0" Properties=species:S:1:pos:R:3 pbc="T T T" Time=983
Ar 9.704151 4.822986 8.228055
Ar 4.433157 5.942805 6.647226
Ar 7.992900 6.712128 2.023920
Ar 9.723969 7.747257 2.078221
Ar 8.218928 2.686611 2.560411
Ar 4.210811 1.149782 3.601575
Ar 7.480789 9.382877 5.538266
Ar 7.183546 3.266018 1.055213
Ar 4.012620 5.578327 9.372030
Ar 8.229493 9.370500 0.299769
10
Lattice="10.0 0 0 0 10.0 0 0 0 10.0" Properties=species:S:1:pos:R:3 pbc="T T T" Time=984
Ar 9.713665 4.827054 8.236374
Ar 4.437388 5.947872 6.653888
Ar 8.000528 6.718107 2.025233
Ar 9.733451 7.755079 2.080254
Ar 8.226450 2.689228 2.562210
Ar 4.214219 1.150019 3.604984
Ar 7.487919 9.391759 5.543173
Ar 7.189844 3.268335 1.056078
Ar 4.016429 5.583452 9.380615
Ar 8.237855 9.379196 0.300043
10
Lattice="10.0 0 0 0 10.0 0 0 0 10.0" Properties=species:S:1:pos:R:3 pbc="T T T" Time=985
Ar 9.723179 4.831121 8.244693
Ar 4.441619 5.952939 6.660550
Ar 8.008156 6.724086 2.026546
Ar 9.742933 7.762901 2.082288
Ar 8.233972 2.691844 2.564010
Ar 4.217627 1.150255 3.608394
Ar 7.495050 9.400640 5.548080
Ar 7.196143 3.270651 1.056943
Ar 4.020239 5.588578 9.389200
Ar 8.246217 9.387892 0.300318
10
Lattice="10.0 0 0 0 10.0 0 0 0 10.0" Properties=species:S:1:pos:R:3 pbc="T T T" Time=986
Ar 9.732693 4.835189 8.253012
Ar 4.445850 5.958005 6.667211
Ar 8.015784 6.730066 2.027859
Ar 9.752415 7.770723 2.084321
Ar 8.241494 2.694461 2.565809
Ar 4.221035 1.150492 3.611803
Ar 7.502181 9.409522 5.552987
Ar 7.202441 3.272967 1.057809
Ar 4.024048 5.593703 9.397785
Ar 8.254579 9.396588 0.300593
10
Lattice="10.0 0 0 0 10.0 0 0 0 10.0" Properties=species:S:1:pos:R:3 pbc="T T T" Time=987
Ar 9.742207 4.839256 8.261331
Ar 4.450081 5.963072 6.673873
Ar 8.023412 6.736045 2.029172
Ar 9.761898 7.778546 2.086355
Ar 8.249016 2.697078 2.567608
Ar 4.224443 1.150728 3.615213
Ar 7.509311 9.418403 5.557894
Ar 7.208740 3.275284 1.058674
Ar 4.027857 5.598828 9.406369
Ar 8.262941 9.405284 0.300867
10
Lattice="10.0 0 0 0 10.0 0 0 0 10.0" Properties=species:S:1:pos:R:3 pbc="T T T" Time=988
Ar 9.751721 4.843324 8.269650
Ar 4.454313 5.968138 6.680534
Ar 8.031040 6.742024 2.030485
Ar 9.771380 7.786368 2.088388
Ar 8.256538 2.699694 2.569408
Ar 4.227851 1.150965 3.618623
Ar 7.516442 9.427284 5.562802
Ar 7.215038 3.277600 1.059539
Ar 4.031666 5.603954 9.414954
Ar 8.271303 9.413980 0.301142
10
Lattice="10.0 0 0 0 10.0 0 0 0 10.0" Properties=species:S:1:pos:R:3 pbc="T T T" Time=989
Ar 9.761235 4.847392 8.277969
Ar 4.458544 5.973205 6.687196
Ar 8.038668 6.748003 2.031798
Ar 9.780862 7.794190 2.090421
Ar 8.264060 2.702311 2.571207
Ar 4.231259 1.151201 3.622032
Ar 7.523573 9.436166 5.567709
Ar 7.221337 3.279917 1.060404
Ar 4.035475 5.609079 9.423539
Ar 8.279665 9.422676 0.301417
10
Lattice="10.0 0 0 0 10.0 0 0 0 10.0" Properties=species:S:1:pos:R:3 pbc="T T T" Time=990
Ar 9.770749 4.851459 8.286288
Ar 4.462775 5.978272 6.693857
Ar 8.046296 6.753982 2.033111
Ar 9.790344 7.802012 2.092455
Ar 8.271582 2.704927 2.573007
Ar 4.234667 1.151438 3.625442
Ar 7.530703 9.445047 5.572616
Ar 7.227635 3.282233 1.061269
Ar 4.039284 5.614204 9.432124
Ar 8.288027 9.431372 0.301691
10
Lattice="10.0 0 0 0 10.0 0 0 0 10.0" Properties=species:S:1:pos:R:3 pbc="T T T" Time=991
Ar 9.780263 4.855527 8.294607
Ar 4.467006 5.983338 6.700519
Ar 8.053924 6.759961 2.034424
Ar 9.799826 7.809834 2.094488
Ar 8.279104 2.707544 2.574806
Ar 4.238075 1.151674 3.628851
Ar 7.537834 9.453929 5.577523
Ar 7.233934 3.284550 1.062135
Ar 4.043094 5.619330 9.440709
Ar 8.296389 9.440068 0.301966
10
Lattice="10.0 0 0 0 10.0 0 0 0 10.0" Properties=species:S:1:pos:R:3 pbc="T T T" Time=992
Ar 9.789777 4.859594 8.302926
Ar 4.471237 5.988405 6.707180
Ar 8.061552 6.765940 2.035737
Ar 9.809309 7.817656 2.096521
Ar 8.286626 2.710160 2.576606
Ar 4.241483 1.151911 3.632261
Ar 7.544965 9.462810 5.582430
Ar 7.240232 3.286866 1.063000
Ar 4.046903 5.624455 9.449294
Ar 8.304751 9.448764 0.302240
10
Lattice="10.0 0 0 0 10.0 0 0 0 10.0" Properties=species:S:1:pos:R:3 pbc="T T T" Time=993
Ar 9.799291 4.863662 8.311245
Ar 4.475468 5.993472 6.713842
Ar 8.069180 6.771919 2.037050
Ar 9.818791 7.825478 2.098555
Ar 8.294148 2.712777 2.578405
Ar 4.244892 1.152147 3.635671
Ar 7.552095 9.471691 5.587337
Ar 7.246531 3.289183 1.063865
Ar 4.050712 5.629580 9.457879
Ar 8.313113 9.457460 0.302515
10
Lattice="10.0 0 0 0 10.0 0 0 0 10.0" Properties=species:S:1:pos:R:3 pbc="T T T" Time=994
Ar 9.808805 4.867730 8.319564
Ar 4.479699 5.998538 6.720503
Ar 8.076808 6.777898 2.038363
Ar 9.828273 7.833300 2.100588
Ar 8.301670 2.715394 2.580204
Ar 4.248300 1.152384 3.639080
Ar 7.559226 9.480573 5.592244
Ar 7.252829 3.291499 1.064730
Ar 4.054521 5.634706 9.466464
Ar 8.321475 9.466156 0.302790
10
Lattice="10.0 0 0 0 10.0 0 0 0 10.0" Properties=species:S:1:pos:R:3 pbc="T T T" Time=995
Ar 9.818319 4.871797 8.327883
Ar 4.483930 6.003605 6.727165
Ar 8.084436 6.783877 2.039676
Ar 9.837755 7.841122 2.102621
Ar 8.309193 2.718010 2.582004
Ar 4.251708 1.152620 3.642490
Ar 7.566356 9.489454 5.597151
Ar 7.259128 3.293816 1.065595
Ar 4.058330 5.639831 9.475049
Ar 8.329837 9.474852 0.303064
10
Lattice="10.0 0 0 0 10.0 0 0 0 10.0" Properties=species:S:1:pos:R:3 pbc="T T T" Time=996
Ar 9.827833 4.875865 8.336202
Ar 4.488162 6.008672 6.733826
Ar 8.092064 6.789856 2.040989
Ar 9.847237 7.848944 2.104655
Ar 8.316715 2.720627 2.583803
Ar 4.255116 1.152856 3.645899
Ar 7.573487 9.498336 5.602058
Ar 7.265426 3.296132 1.066461
Ar 4.062140 5.644956 9.483634
Ar 8.338199 9.483548 0.303339
10
Lattice="10.0 0 0 0 10.0 0 0 0 10.0" Properties=species:S:1:pos:R:3 pbc="T T T" Time=997
Ar 9.837347 4.879932 8.344521
Ar 4.492393 6.013738 6.740488
Ar 8.099692 6.795835 2.042303
Ar 9.856720 7.856766 2.106688
Ar 8.324237 2.723243 2.585603
Ar 4.258524 1.153093 3.649309
Ar 7.580618 9.507217 5.606965
Ar 7.271725 3.298449 1.067326
Ar 4.065949 5.650082 9.492218
Ar 8.346561 9.492244 0.303614
10
Lattice="10.0 0 0 0 10.0 0 0 0 10.0" Properties=species:S:1:pos:R:3 pbc="T T T" Time=998
Ar 9.846861 4.884000 8.352840
Ar 4.496624 6.018805 6.747150
Ar 8.107320 6.801814 2.043616
Ar 9.866202 7.864588 2.108721
Ar 8.331759 2.725860 2.587402
Ar 4.261932 1.153329 3.652719
Ar 7.587748 9.516098 5.611872
Ar 7.278023 3.300765 1.068191
Ar 4.069758 5.655207 9.500803
Ar 8.354923 9.500940 0.303888
10
Lattice="10.0 0 0 0 10.0 0 0 0 10.0" Properties=species:S:1:pos:R:3 pbc="T T T" Time=999
Ar 9.856375 4.888068 8.361159
Ar 4.500855 6.023872 6.753811
Ar 8.114948 6.807794 2.044929
Ar 9.875684 7.872410 2.110755
Ar 8.339281 2.728476 2.589202
Ar 4.265340 1.153566 3.656128
Ar 7.594879 9.524980 5.616779
Ar 7.284322 3.303082 1.069056
Ar 4.073567 5.660332 9.509388
Ar 8.363285 9.509636 0.304163
